%%MatrixMarket matrix coordinate real general
% Random matrix generated for weak scaling
4000 4000 200
596 3302 0.214122
2009 1799 0.805223
280 3208 0.409135
3814 3471 0.352532
3958 3395 0.522051
491 1474 0.788732
2656 563 0.000341152
152 224 0.54955
3434 2615 0.370491
648 1614 0.540005
343 1877 0.457493
499 3388 0.826649
1698 2193 0.167002
2254 3428 0.623577
1274 3554 0.664627
92 2231 0.749575
3699 2924 0.183107
3628 3007 0.350298
3403 1479 0.444969
2783 2911 0.497692
1543 701 0.898666
2367 2956 0.384302
1694 3203 0.326995
2299 3369 0.615498
1863 2532 0.945122
3124 2046 0.348851
498 885 0.0383341
993 262 0.351536
3920 2283 0.751102
2490 1812 0.144408
2277 532 0.626937
3351 3728 0.381496
518 3547 0.612709
3159 3715 0.237874
3381 1494 0.930779
811 3553 0.206424
319 1120 0.618563
2691 1796 0.737807
1796 169 0.846743
2022 663 0.49585
587 1774 0.536605
2992 1309 0.8419
964 2805 0.505739
3365 878 0.308444
1804 2317 0.562844
3317 1460 0.854423
1702 3134 0.717511
3479 591 0.454695
71 2175 0.738203
3558 3673 0.0378438
3723 2922 0.919932
1137 3883 0.62237
897 1600 0.614312
2133 2319 0.419152
3239 397 0.63228
2368 536 0.782485
3384 466 0.482471
3745 1434 0.315588
691 3815 0.597784
1716 2066 0.195179
707 2071 0.252513
2068 3668 0.0265965
1290 3881 0.423336
3166 2290 0.972662
3193 326 0.0710518
1934 3534 0.186401
3761 2426 0.490118
2701 1237 0.786942
2007 1464 0.670902
1054 670 0.463267
2471 201 0.765854
1951 166 0.455675
3648 3884 0.946723
3401 1663 0.678592
3887 3623 0.197216
1989 1747 0.346938
1690 480 0.896453
74 687 0.385029
2041 1072 0.825176
2086 730 0.101156
658 558 0.375603
164 3746 0.990563
902 618 0.634281
424 90 0.0617587
1801 555 0.347164
1326 1183 0.604219
748 3393 0.678662
3386 3826 0.247245
321 504 0.237963
2177 3215 0.781283
3909 3799 0.519134
139 1594 0.48221
3813 1616 0.641737
1213 2689 0.667602
290 2216 0.851439
2612 2696 0.0644164
3496 3043 0.251854
931 1769 0.608366
1727 2854 0.979596
3629 2513 0.386499
3453 1287 0.772089
3623 1632 0.0428188
2253 1924 0.230155
2841 175 0.46672
2192 390 0.140138
3504 863 0.839696
833 1658 0.24625
2954 2128 0.546056
52 499 0.117612
2027 3833 0.337766
3901 3337 0.265511
2164 2961 0.280253
2789 819 0.733356
212 3814 0.442619
1855 3173 0.939667
2505 684 0.45986
2937 490 0.282346
765 715 0.452526
2798 580 0.880265
2189 1848 0.587042
512 1709 0.277554
2254 78 0.894381
2279 3220 0.716039
711 426 0.658706
3864 1818 0.877454
3752 2721 0.68254
3386 1713 0.888167
2062 1843 0.967764
334 1022 0.122785
3073 2109 0.126188
2854 315 0.68112
3970 3948 0.665107
1128 2602 0.588653
3620 2748 0.792571
309 3099 0.869195
2910 26 0.331107
1326 607 0.53723
3379 1506 0.301177
822 1402 0.361527
2112 1834 0.380613
3971 202 0.378418
402 1606 0.893954
2735 587 0.280971
2912 2442 0.0841653
2342 423 0.0996016
3227 3975 0.0510639
3711 1627 0.263179
1630 2611 0.749018
2632 2061 0.198872
3680 1348 0.331608
46 1280 0.720284
961 1795 0.173532
2393 3939 0.0420754
309 1739 0.0308049
3492 3539 0.625897
2658 3999 0.853364
2729 2870 0.16534
356 1672 0.409945
1940 317 0.494597
3085 1163 0.688355
2152 1105 0.845643
2174 2089 0.626468
1447 1391 0.0734097
3356 976 0.41077
3582 1254 0.194231
3068 565 0.306598
742 2515 0.530525
208 1256 0.348242
301 2924 0.866251
1444 1435 0.806522
2421 356 0.069379
543 1944 0.652136
829 2998 0.446222
1866 132 0.983433
634 529 0.869857
444 2103 0.127993
29 626 0.281332
3687 1092 0.283515
2396 2941 0.561595
201 1930 0.86495
258 1295 0.944889
2448 1416 0.0116219
1463 2295 0.524676
2365 3561 0.727999
3365 116 0.973881
2365 2993 0.908546
2115 3151 0.296322
2170 3890 0.976157
401 2782 0.400263
1595 1157 0.301347
893 3111 0.556167
376 2209 0.219914
125 1145 0.740866
2525 1509 0.262403
3310 1776 0.465442
3652 2756 0.995081
949 2316 0.865711
317 2882 0.859955
3067 1646 0.642685
369 1995 0.971001
