%%MatrixMarket matrix coordinate real general
% Random matrix generated for weak scaling
256000 256000 12800
20352 16237 0.327692
411 18278 0.0837386
16692 1206 0.742234
9284 24987 0.722763
26540 4467 0.77906
28775 28841 0.758783
18835 17401 0.331985
31711 17646 0.837919
13378 8595 0.545738
4300 12732 0.559466
6039 11069 0.28862
3079 28081 0.843006
22759 1114 0.603264
29964 10655 0.518848
31990 24963 0.646147
14004 14450 0.800657
3840 14617 0.738606
3121 9298 0.923112
29648 20216 0.229992
15928 15884 0.139063
28437 3301 0.787513
28943 24968 0.349665
9402 30434 0.766131
21502 9155 0.516237
12840 9093 0.0915122
25703 4391 0.0389194
23956 31684 0.0771718
18215 11084 0.643144
512 16787 0.0916098
25505 19897 0.441812
6267 32653 0.310582
3 29145 0.820058
25201 26470 0.791207
32764 20465 0.823521
24740 17809 0.307192
6641 7890 0.125874
20890 26708 0.425983
23909 6215 0.607867
16233 6993 0.0536616
16136 10406 0.104291
10416 14350 0.333826
3821 29374 0.294935
3473 3163 0.456675
9536 3741 0.487441
26420 29866 0.727269
22198 21432 0.991556
14475 4128 0.261781
12241 7946 0.435155
24821 1320 0.860572
7609 21889 0.906044
6357 19855 0.298848
24517 6975 0.784229
13759 999 0.597254
15448 11888 0.771964
13681 9069 0.205626
21942 3556 0.774017
28740 30730 0.317704
15073 29796 0.77962
12491 22790 0.962982
7126 27206 0.935384
7056 9486 0.917212
19644 21200 0.419799
26247 16718 0.360888
32056 18645 0.390943
12978 20312 0.141513
4702 28170 0.278873
12091 19411 0.336763
716 31707 0.215011
26564 29990 0.583919
4790 20719 0.0679006
3873 22757 0.798246
3108 28800 0.94602
27007 887 0.666312
1451 3658 0.865018
823 4465 0.744105
4916 7699 0.852905
31094 8129 0.030978
6150 19051 0.827793
11872 5013 0.190118
11323 25672 0.0672454
14712 21819 0.971565
10532 1669 0.381616
31170 18549 0.545607
583 25433 0.714926
30560 8989 0.730271
21606 29977 0.671344
6171 3888 0.326264
11175 26290 0.706575
5532 15379 0.845843
30710 21080 0.738159
28763 27037 0.392757
23173 15619 0.69397
11542 23915 0.358978
5418 131 0.663628
30650 22731 0.0872603
28835 21822 0.713333
15061 32312 0.92922
29493 14114 0.729742
31307 21873 0.801824
25306 19880 0.427955
25348 3498 0.211074
1506 13104 0.398517
4070 23857 0.584813
8349 11716 0.745283
6737 7000 0.120184
5443 29237 0.382824
30962 29247 0.667449
32516 29510 0.810639
24731 27423 0.401607
21801 2954 0.921307
29964 30070 0.639565
4881 24038 0.375074
7415 11054 0.916413
18092 24763 0.883442
9736 21394 0.155859
10278 13292 0.000799229
21372 20830 0.719332
26027 17275 0.618207
18209 9292 0.682956
24168 27048 0.697189
6380 16784 0.302369
19003 28060 0.318966
7915 13994 0.996969
24198 15682 0.451903
11400 30699 0.265197
25437 31769 0.0617797
18421 384 0.0380661
3783 8358 0.643147
28653 8747 0.699511
16097 6881 0.152717
16771 31290 0.930455
32346 19028 0.703117
20701 24223 0.712923
10105 1089 0.44696
9017 22592 0.248373
16332 21956 0.661028
17477 3899 0.796548
30439 17920 0.159676
17157 28392 0.158452
22534 25560 0.596562
30605 22684 0.632303
25982 10309 0.582221
10355 6206 0.263165
9701 29595 0.317281
20773 20540 0.311261
4282 1312 0.497061
23469 6794 0.224756
25840 15473 0.538153
8710 16624 0.67533
17933 26087 0.237394
4658 4234 0.210865
16868 18484 0.0557499
23650 5604 0.859955
7555 6994 0.0561492
5170 28544 0.667698
11427 3940 0.556144
25904 16144 0.42436
18251 3328 0.767228
32626 3147 0.450104
27915 18838 0.628876
11973 25148 0.00958426
14063 1908 0.503723
15312 22810 0.667438
14930 18556 0.0924968
12610 31568 0.465321
14887 24055 0.513273
25567 17562 0.301934
23695 9737 0.0311235
7889 12451 0.507272
14176 25589 0.769556
27801 8411 0.0881929
4666 14493 0.558594
19503 12791 0.17863
14205 19571 0.686235
32155 11806 0.576058
15291 2702 0.0615089
26202 31609 0.0411091
19495 67 0.898475
4698 21242 0.996469
6000 16651 0.272587
9805 25880 0.225984
30210 1164 0.390351
26563 10459 0.628356
7478 23952 0.414489
10622 4643 0.851508
5348 31488 0.772089
15969 26634 0.95247
27306 19445 0.651045
8986 26722 0.445819
4524 19557 0.0532263
32184 16744 0.0843312
29289 21149 0.379735
21545 13801 0.0469828
24110 10562 0.290469
13288 19513 0.259398
13950 159 0.701995
15829 1804 0.200222
11210 24304 0.296094
30471 27995 0.152472
24969 30097 0.00083538
28497 11971 0.0932839
3881 12944 0.167005
31971 32368 0.327733
29734 27105 0.285062
9745 5586 0.336826
31140 5785 0.116858
1878 4547 0.416484
2382 24959 0.658939
28972 25979 0.755029
31949 1478 0.531495
8888 26941 0.575233
13018 4643 0.479321
12328 9437 0.403832
10113 26567 0.27019
7365 14532 0.841802
25612 27336 0.256302
29719 91 0.980675
17211 16555 0.510251
30788 21748 0.802009
27189 10838 0.0241571
24605 28156 0.803043
19534 31928 0.548743
31997 8890 0.24821
27470 19858 0.852297
5200 7081 0.930632
4006 28658 0.754786
27803 20489 0.490692
29240 20768 0.740791
27082 10866 0.894038
12730 6396 0.451133
22826 18487 0.993089
11272 10608 0.90995
3334 6972 0.683028
4940 23961 0.636035
24798 6513 0.0565578
11454 20846 0.67111
28430 23828 0.76782
16142 6655 0.312104
12439 27229 0.700598
6872 14663 0.455528
27042 3841 0.88739
31460 30931 0.690153
17503 14513 0.549615
28112 24917 0.6807
30700 1854 0.68772
4159 10563 0.958729
814 23161 0.118131
16295 27014 0.525261
15914 5613 0.662132
5596 728 0.715585
12179 27589 0.854425
26719 13555 0.510251
15773 6381 0.780866
24624 22614 0.511875
23299 5769 0.749467
3982 10512 0.46917
20725 7939 0.828781
917 11079 0.801375
20579 3953 0.788895
20394 32272 0.164474
18915 26520 0.928126
9949 27027 0.305479
7420 28803 0.579672
16421 20609 0.279505
19551 2470 0.980245
2001 17076 0.43967
13105 18935 0.220549
25880 29323 0.510963
5827 30390 0.425448
10060 30118 0.189133
18681 21099 0.641961
20562 5119 0.129437
25982 11048 0.0681545
21987 11638 0.604351
1410 13235 0.633379
3678 9945 0.341784
31998 4288 0.862895
12141 7449 0.720649
25736 31990 0.367501
31843 22632 0.461331
6639 12810 0.18927
11263 29489 0.198907
9430 19453 0.269318
12263 25548 0.467236
19970 18309 0.164048
26882 3206 0.295893
8225 28259 0.303083
793 28114 0.674632
24121 524 0.458094
28945 31332 0.607196
15709 3425 0.522461
27958 30122 0.353291
2159 16986 0.91411
4663 27810 0.205281
4386 17886 0.474706
358 19592 0.230838
31119 7525 0.562103
12804 3503 0.974447
16434 1266 0.463312
2362 16390 0.496927
20951 29395 0.984981
22582 13528 0.483888
26540 15133 0.87815
20946 12333 0.848635
17186 2395 0.913855
19990 30181 0.172635
4598 14239 0.961538
16120 128 0.984997
15102 3472 0.555322
19427 14409 0.900592
21131 9645 0.487346
24295 32667 0.165221
6287 15093 0.980001
11940 2674 0.499857
24029 24763 0.552587
30388 13539 0.869354
8238 13024 0.304429
4247 11365 0.696862
8699 30192 0.12978
18205 19237 0.669549
31093 1238 0.507851
29454 7274 0.541526
29226 7540 0.0918482
4299 24303 0.803066
1078 21324 0.29886
1900 24039 0.795221
24666 11737 0.635889
3268 10338 0.0563275
13701 5293 0.334712
26765 30136 0.969983
6693 22545 0.0501229
14583 19296 0.224378
8869 26580 0.590141
29094 20927 0.391926
23894 11089 0.0844744
13667 2172 0.301089
27954 28847 0.169517
27569 7203 0.820546
19987 10748 0.383471
29053 15808 0.940394
5731 9773 0.671465
24787 8795 0.452649
1228 489 0.481198
25405 6995 0.878674
18931 21714 0.666977
3536 14802 0.114485
31111 31680 0.178638
25654 8743 0.362069
10604 32049 0.0453408
1290 12444 0.937908
21036 25186 0.592977
31676 21358 0.569302
21582 24576 0.272347
189 1749 0.577159
403 14419 0.0448103
19172 7689 0.555988
23295 13974 0.181439
6268 31883 0.964944
3350 15156 0.978271
19893 9140 0.98361
860 414 0.955253
11535 5830 0.6336
14752 11514 0.214336
17545 6847 0.0471391
3268 2571 0.0780326
17469 4690 0.131487
22291 32715 0.742558
19247 27778 0.969126
21933 24204 0.532207
7435 22404 0.653226
10624 6266 0.458856
21092 4779 0.606637
12692 31617 0.0985407
22876 12141 0.514623
12795 26939 0.269978
10643 32520 0.663955
24789 20507 0.561484
2720 31379 0.69328
16804 29356 0.267515
2554 4192 0.652243
2728 9819 0.737687
655 31150 0.963457
28767 23836 0.3703
17860 13680 0.621307
25251 6556 0.658031
26971 24985 0.719242
4954 27417 0.401123
6706 14677 0.228043
27586 2786 0.43318
2176 30233 0.208882
30927 18976 0.443105
29780 12504 0.865884
19054 2709 0.0351542
12942 7886 0.859284
28819 24405 0.867372
20229 17296 0.210329
1848 27829 0.218964
31273 9632 0.384436
10644 7933 0.884587
26606 14274 0.591645
728 7618 0.696618
10186 20288 0.577444
28260 22390 0.226143
25777 521 0.0310854
13181 24417 0.155046
23862 5032 0.00582467
32152 2715 0.653623
11230 5221 0.50487
2965 18516 0.575326
6577 6278 0.443727
4221 5627 0.462848
28504 25069 0.306632
2664 9900 0.291435
30270 26660 0.848467
861 20713 0.918908
22920 3106 0.704061
2188 13467 0.195871
12255 27439 0.761275
30177 2237 0.592977
13452 23464 0.838737
181 24133 0.779637
147 12766 0.746546
31764 28952 0.445931
17893 13628 0.467282
31266 20433 0.17498
12800 7737 0.0728451
12004 30161 0.0183591
20899 15846 0.511492
23929 19242 0.518726
8570 26099 0.869023
16173 1400 0.283781
31022 18837 0.240585
19007 28547 0.533357
23735 23856 0.298007
144 22101 0.147692
28105 7995 0.080658
24431 2429 0.175353
23113 30706 0.951686
7357 15292 0.0503528
7283 19355 0.456958
3215 30176 0.931444
11664 20653 0.191504
1746 13842 0.384289
15045 21401 0.66738
21984 25428 0.684223
13122 13331 0.329161
11725 25968 0.265146
4704 27675 0.0792384
15691 7633 0.0619625
30487 32607 0.329756
9554 4943 0.761876
16998 10810 0.87821
22161 24459 0.973535
306 1670 0.993036
15804 26202 0.00059616
3464 18467 0.366972
25820 10224 0.592405
25484 30227 0.797682
15969 27385 0.368692
3523 24949 0.711281
21642 9527 0.329121
15386 12796 0.803136
12352 5575 0.918427
19966 30245 0.517806
919 10442 0.769602
32686 29867 0.303982
29406 12846 0.750771
31906 960 0.596439
8650 28557 0.8988
29471 27994 0.53494
5846 9082 0.720944
4469 9295 0.291269
6498 27114 0.735181
29677 23748 0.951086
14868 23351 0.461053
30506 26575 0.523348
22788 5532 0.561403
15619 30312 0.251929
4400 23451 0.101946
31539 14222 0.711715
15184 2973 0.555966
28573 3382 0.510329
18954 19322 0.270935
21178 6714 0.458874
21383 23898 0.573029
16736 3207 0.199041
30289 14841 0.335471
554 29647 0.480937
9826 23976 0.999854
8939 23736 0.0135015
12684 17644 0.808784
22526 28443 0.225481
16630 28205 0.654107
19895 17873 0.63544
4221 27653 0.703182
13422 7737 0.189133
17056 11351 0.374373
26813 11464 0.677833
25481 9901 0.407686
2868 3613 0.0790595
10225 14007 0.828068
10524 19556 0.575412
14036 31992 0.275257
31850 11519 0.187299
10433 11025 0.932506
17348 3372 0.75568
20866 6007 0.484698
4397 15285 0.47332
18299 16073 0.917122
740 14684 0.894894
22985 2516 0.614847
19223 22736 0.428841
20962 17065 0.843347
273 6409 0.25412
9284 26837 0.680905
27131 30932 0.39277
8877 513 0.777104
9048 23195 0.23734
1517 7128 0.531626
25099 19996 0.577668
31150 29228 0.195937
7614 4044 0.384532
2308 22481 0.699264
29121 13413 0.681054
11837 17240 0.737866
13583 24294 0.585912
11749 30066 0.959497
8051 6240 0.563513
10604 21968 0.805734
13777 9508 0.838362
18479 7251 0.0991882
29491 12287 0.342932
5423 9423 0.0870672
5332 31792 0.543948
8982 762 0.506408
19332 23306 0.545607
23790 7055 0.5121
19113 9410 0.799199
19685 16592 0.615589
8472 6425 0.311384
16321 1256 0.570504
10115 4261 0.820546
18013 27284 0.783788
14233 13351 0.824942
28082 10280 0.905931
24594 16395 0.113348
3967 19953 0.603665
27773 5215 0.345588
18728 29068 0.603665
5168 20514 0.54027
21617 21219 0.553436
14231 7102 0.149807
14248 288 0.205509
26286 7448 0.461328
7620 4814 0.250739
387 21147 0.947166
17202 3736 0.532814
3671 29371 0.586523
25876 29081 0.960378
25804 6787 0.962974
7123 12611 0.831599
9518 2496 0.516821
8471 2048 0.44476
17781 4008 0.662657
17265 12832 0.0684
18785 30218 0.645025
8200 28039 0.758276
14855 2745 0.0646112
28552 13591 0.878869
2584 5871 0.434028
14889 21384 0.221293
6114 4331 0.509795
11837 12875 0.686178
16706 19110 0.675509
22107 22492 0.0456974
11186 14549 0.55949
12034 12002 0.758135
415 22980 0.292246
18936 11800 0.465272
14684 13254 0.830468
4538 21427 0.490233
4322 27932 0.0447404
18101 32587 0.212035
1037 24242 0.940392
25115 19945 0.368927
23874 31220 0.723996
8063 25602 0.218607
9615 20487 0.439586
4104 27064 0.016603
13605 9184 0.260389
22116 22662 0.07629
18727 31461 0.603988
14007 15232 0.461401
24974 3200 0.161963
8238 3645 0.208913
21665 3428 0.991453
31834 2973 0.443964
32741 3880 0.0242275
6139 16021 0.769719
8027 5489 0.866913
10347 32651 0.958828
26035 19536 0.821414
12030 1528 0.151862
17289 27520 0.16642
8693 15683 0.705339
4420 27875 0.515155
13928 32512 0.28019
16531 22009 0.66217
24048 5752 0.465635
6678 8054 0.465832
30348 21060 0.297179
2069 12716 0.273283
28682 3714 0.588939
23895 27461 0.961198
1722 13804 0.100998
32598 26421 0.685914
20765 21044 0.603487
22649 31757 0.945736
18038 723 0.975459
24737 25817 0.683999
29790 11997 0.241423
5152 17495 0.13075
7959 7715 0.99781
30141 26287 0.898686
1684 29444 0.851152
28709 31241 0.545321
31782 16036 0.245958
26804 6848 0.614651
14722 2694 0.713268
29138 9589 0.497626
6427 19381 0.28873
25825 21674 0.578672
25035 28251 0.848556
31579 29379 0.711183
18365 10484 0.110637
14881 22128 0.648483
19773 26105 0.706196
18833 26615 0.000481842
32245 27477 0.305771
12373 263 0.720284
31277 12214 0.898956
19755 19469 0.280851
23203 28593 0.795459
21218 30840 0.743035
9299 8345 0.454672
12494 6687 0.394574
1536 1486 0.632012
7826 29618 0.509004
16888 27069 0.22779
23830 21217 0.396626
18901 9141 0.268921
17619 232 0.201682
5237 31590 0.138388
25859 10951 0.401569
29528 597 0.329816
3927 8494 0.621478
12907 100 0.78271
8704 9365 0.841734
10001 24752 0.825521
9227 26709 0.0776839
14408 26999 0.247068
1070 25820 0.357554
8758 5596 0.767676
12899 24920 0.777296
19783 31939 0.989418
31079 20561 0.984442
25922 20786 0.91461
1954 14149 0.221013
1119 2107 0.521947
14524 10523 0.310582
12160 330 0.70372
2439 31485 0.847966
28743 24721 0.467353
20210 24571 0.636063
28635 929 0.456409
12023 22461 0.261138
8416 17476 0.182132
23279 32726 0.229475
5605 22723 0.791104
24669 30257 0.571343
26733 26262 0.594666
767 4924 0.514491
19288 6039 0.822538
21087 15042 0.469167
30753 20819 0.891174
8953 8089 0.31171
27066 7117 0.301789
11536 26841 0.00277497
31017 27152 0.196699
11954 7551 0.822549
25198 9920 0.814314
28927 28173 0.688689
8688 5671 0.546052
26623 11326 0.533056
1922 22610 0.664084
31937 30779 0.594694
443 9346 0.07594
27121 17016 0.764324
20164 1779 0.458856
18639 9351 0.574809
2767 7528 0.626893
30921 18735 0.769838
6499 15745 0.611803
22341 30934 0.35585
4523 28719 0.242716
10597 10089 0.617619
17208 640 0.585862
3974 3453 0.931358
9018 4131 0.921789
23872 12444 0.753133
23164 4510 0.8782
7341 2357 0.221459
931 14888 0.302736
10976 19462 0.683471
4409 19234 0.299183
16443 27272 0.417359
7550 8888 0.323634
24985 29344 0.705326
20601 10957 0.436713
26435 28475 0.156881
29733 5434 0.764042
2989 312 0.921087
3175 9157 0.351954
18617 25382 0.0127399
21181 28076 0.906173
15239 3286 0.756225
8282 26589 0.154382
28140 6786 0.33501
22005 22166 0.248165
28315 29448 0.104582
192 13466 0.230751
18252 24223 0.597704
1211 1299 0.69371
12169 25742 0.273013
2132 23840 0.232925
30539 24015 0.082423
18710 17297 0.856179
29640 15331 0.0289444
4835 24579 0.208914
25479 20649 0.229974
32439 10686 0.523598
22755 31684 0.953947
1556 8256 0.349623
24445 7482 0.452581
12143 3151 0.912744
6221 32437 0.569748
3240 25559 0.685618
16999 31291 0.881491
4998 20704 0.956077
11476 10151 0.938298
11271 24105 0.102543
18453 16228 0.191291
14023 13252 0.0232958
27845 32244 0.562695
12502 7486 0.250058
14262 2623 0.944376
14087 15768 0.439606
13886 13204 0.707374
11763 8384 0.409328
11055 31612 0.411311
1091 17789 0.503667
10221 6688 0.0150655
9079 23044 0.156931
11369 8615 0.459589
24006 20798 0.488239
11680 24173 0.129212
11908 17424 0.48075
23504 18416 0.5213
22335 25048 0.603988
4892 11357 0.609745
2479 14076 0.499435
24823 5120 0.236225
2421 22128 0.828221
21550 11585 0.0967802
30135 8442 0.0844
1999 7396 0.734762
13001 17712 0.990277
15683 26034 0.305979
8922 4902 0.372215
9763 14985 0.399706
4478 25019 0.985266
11436 19763 0.278904
14803 13789 0.713444
7363 12460 0.99118
27753 27158 0.194231
14809 14500 0.0819677
1440 10024 0.39088
14822 17360 0.440346
2000 1295 0.123662
31426 29266 0.870299
27414 32682 0.346364
2831 30896 0.302226
293 1841 0.593581
12234 2508 0.250649
9902 1367 0.582942
10779 15353 0.460681
16718 27378 0.256534
10478 5079 0.80621
27573 15371 0.214122
1445 9017 0.45267
3275 21476 0.00190733
5544 24012 0.480648
24923 11084 0.56315
1213 32047 0.696475
31554 10816 0.760878
15204 10575 0.453761
27023 3280 0.366219
12365 2987 0.616307
31936 2160 0.0451677
1771 16689 0.970193
25107 11778 0.326995
28343 3616 0.702836
21651 6650 0.63852
1007 10335 0.123362
22072 32569 0.613053
4052 14068 0.534966
25845 934 0.0510078
1931 19887 0.94145
2094 31476 0.865782
4073 5605 0.86868
1987 3645 0.783781
21570 9964 0.768806
21035 30525 0.120397
11224 28985 0.636456
24045 20647 0.498102
7406 12991 0.58549
1196 9599 0.229266
16593 25230 0.253231
17460 17297 0.99273
17407 32238 0.454555
592 22287 0.136348
8113 1901 0.460099
29974 26222 0.840134
18893 5934 0.540512
20149 18730 0.587736
28444 3410 0.985
6459 28418 0.415926
22711 25517 0.201585
25851 11090 0.595829
665 6873 0.681478
12376 28856 0.484765
11252 9180 0.660301
17259 4823 0.0849273
32041 88 0.455222
7013 26074 0.0942876
18990 28811 0.460554
17680 4182 0.837595
30897 17808 0.974016
31313 15115 0.500968
13825 25289 0.689918
24091 14063 0.381388
8186 25409 0.356389
13946 4199 0.649869
25355 30921 0.808624
23255 13773 0.664937
8805 30531 0.528388
14215 2449 0.327429
32465 20813 0.741862
7463 18112 0.737068
28185 10335 0.191593
1267 18811 0.382436
10942 5398 0.920447
23479 12444 0.957732
14912 8245 0.385599
27681 23288 0.07443
18963 11395 0.475128
14392 23833 0.111969
12328 5557 0.136414
13270 440 0.850752
25086 24272 0.383329
12028 4695 0.236115
1360 19882 0.0879833
16092 29025 0.874488
6839 26868 0.8071
26963 18453 0.18539
14626 23311 0.6762
4521 21705 0.989568
25791 17809 0.107778
11165 18591 0.146885
16889 13218 0.293597
24370 20634 0.582926
11876 12681 0.501656
9209 9839 0.841305
9651 30891 0.337612
11315 24525 0.984711
5545 260 0.23732
11998 29825 0.532918
8466 279 0.945643
4261 10639 0.0916083
32431 844 0.447164
24822 8721 0.977807
595 5596 0.977988
15102 21958 0.0667442
8305 25538 0.0580044
13731 15954 0.358491
29633 2695 0.181784
7070 14541 0.636305
10388 27883 0.345585
14272 9685 0.696771
19875 4415 0.913974
8115 2892 0.277688
13685 30450 0.413745
26912 4177 0.019696
6004 15658 0.644148
30818 119 0.265089
7708 22847 0.657276
4748 7403 0.103237
27098 31936 0.767786
7342 21087 0.494864
24878 10927 0.205849
12737 23473 0.573323
19654 14532 0.960114
23185 18546 0.642168
19378 31522 0.630077
26797 20270 0.591769
18619 27900 0.783767
30496 19435 0.202932
4479 17841 0.731156
27761 22288 0.691385
28022 19647 0.0644107
2199 23832 0.719269
11886 13784 0.708824
25642 6465 0.0203937
217 5996 0.14449
7550 6522 0.616171
6385 22308 0.12746
4016 781 0.756307
22587 27373 0.0575681
22987 32021 0.743812
20138 26849 0.468286
31504 25990 0.635857
19853 17615 0.396215
20723 27283 0.878149
14470 23183 0.779784
18555 2813 0.108276
22732 10112 0.509152
15219 30825 0.0676137
13736 14110 0.337145
31114 13136 0.245884
12209 3907 0.0469828
32697 21245 0.961013
15197 22744 0.502692
25431 135 0.833238
9465 13827 0.521947
31340 11374 0.930515
29347 6652 0.334679
22499 27516 0.434992
5820 5513 0.128977
22348 9960 0.576095
11888 9375 0.381836
16195 17860 0.744303
14926 21287 0.853115
5739 15951 0.0137687
13532 20839 0.88289
10892 14764 0.212209
25905 21144 0.260549
24727 28564 0.958213
30190 28199 0.726984
7938 21714 0.250188
5052 31837 0.137141
10895 1564 0.877568
31786 17517 0.801737
13249 24491 0.178651
11810 11451 0.404809
17130 1271 0.686187
26307 247 0.938783
21967 26471 0.818398
5564 18263 0.375603
12524 17842 0.781295
11294 24515 0.283685
4976 7752 0.727019
28960 21266 0.407382
23158 25477 0.266538
18982 542 0.808339
30562 11968 0.057637
23319 24270 0.121762
14097 17822 0.681833
2032 11513 0.346185
3988 19508 0.80186
25558 32699 0.902516
10679 2776 0.00922637
23385 16187 0.772263
8591 7945 0.0180373
7062 10209 0.964005
2453 2086 0.630947
4206 3938 0.232733
86 6191 0.441983
16462 13659 0.289436
23579 26800 0.676476
23896 7447 0.496383
18295 14075 0.399913
4080 27977 0.287223
22708 7144 0.803761
10238 1924 0.462848
24999 31584 0.205314
27870 17220 0.811662
7037 2185 0.775485
22202 15202 0.643254
2667 28808 0.656167
1676 26124 0.0641716
30971 9698 0.968359
13548 22251 0.846977
21789 32616 0.149819
28243 8946 0.847678
11755 8108 0.658841
24902 11222 0.330183
21426 22271 0.727166
6698 13437 0.264383
26670 4665 0.374236
20353 12694 0.231066
25190 30944 0.68221
19437 11322 0.349731
11307 20409 0.102621
30965 31181 0.454356
5232 12791 0.716241
14942 25179 0.464244
11357 32094 0.635057
5651 19337 0.0549735
1733 22960 0.877978
18747 7999 0.0277325
23326 31796 0.6248
6831 29588 0.275601
46 22212 0.577668
15611 5498 0.77512
4281 16076 0.541264
16397 6636 0.317467
20710 4804 0.0595722
29262 28874 0.067117
29046 27192 0.54252
27246 16920 0.0164877
14635 4419 0.843507
22624 1878 0.306617
7130 6042 0.89278
23911 10668 0.103232
29163 25227 0.727513
31870 5060 0.874197
1775 16172 0.411534
17748 32007 0.536712
14185 19269 0.73191
12559 13910 0.0715713
19739 10917 0.265632
11911 9032 0.81306
24788 2410 0.360246
28046 5139 0.96611
31095 3612 0.889992
25725 10830 0.136744
20866 12785 0.21385
17905 11780 0.157045
7300 32631 0.387579
29325 25896 0.661426
13666 6603 0.813874
19176 8856 0.596319
9667 3406 0.335992
23418 4363 0.535488
23912 20515 0.385344
9285 7740 0.460636
27669 24657 0.00385012
32510 25282 0.387974
18102 18424 0.964743
31675 4926 0.751142
12284 11107 0.805135
32721 32527 0.894808
6633 1843 0.51402
10759 10402 0.0706822
8638 17394 0.970667
19243 28457 0.162409
29303 29762 0.376897
2202 12522 0.631064
25066 21457 0.67803
14275 25039 0.838362
16012 22052 0.883446
26773 2145 0.315441
4532 14027 0.330939
22138 32255 0.0301915
29259 6264 0.0211846
24510 5641 0.170637
12473 9564 0.657749
20279 12042 0.937266
10562 15425 0.862606
18624 4236 0.912752
15655 16374 0.943763
13861 10415 0.814686
1394 27117 0.489622
23447 3320 0.43751
22796 15497 0.886185
13768 18375 0.91097
28083 32517 0.193785
4230 17256 0.00275084
24795 25904 0.289475
11820 9952 0.986051
18790 10480 0.166711
16690 10622 0.142153
7029 32466 0.914732
3698 25172 0.0340637
22256 970 0.841639
9716 14141 0.07629
32416 17065 0.0876355
22943 20713 0.635765
26626 18113 0.0138403
1720 32378 0.0780946
26052 11787 0.962038
20367 10017 0.261717
29000 5211 0.288163
27641 8658 0.0143105
25946 29080 0.957451
12552 32504 0.334808
10235 20948 0.689045
17809 11804 0.681587
7471 23864 0.86242
29520 28407 0.762856
1869 18041 0.0744319
14385 13382 0.145344
20325 19602 0.213276
26506 9175 0.260924
28429 11212 0.828967
16093 6530 0.618553
2830 11362 0.601104
16795 2870 0.265632
2474 4277 0.450068
24349 18325 0.170811
27713 3365 0.881816
2717 23438 0.658589
11006 28267 0.0550897
13588 6207 0.940779
23625 15870 0.478073
23387 3881 0.25024
21702 32477 0.484989
29804 26523 0.329636
27143 24694 0.115958
24383 5912 0.0279782
4876 26860 0.489129
24075 4647 0.720284
7480 17096 0.692865
16635 7753 0.988865
26102 5384 0.702824
15291 1956 0.0422079
9428 21770 0.565692
27537 23426 0.702054
13437 27607 0.362987
1459 3742 0.938607
6956 18538 0.337078
15045 19277 0.453858
9009 27942 0.685281
28183 936 0.48002
30731 5537 0.859326
25755 29875 0.294342
11544 2252 0.827608
4063 30805 0.926236
31632 12504 0.701579
17752 28531 0.0740808
30144 9765 0.19424
13826 14160 0.00913874
20666 29329 0.348665
7558 19968 0.0558309
25029 21587 0.528267
684 20178 0.0103847
7433 18305 0.618629
19115 4119 0.266702
18329 1985 0.191404
1103 28767 0.854055
25732 13059 0.730634
28654 31030 0.00116375
17910 8036 0.561335
23084 1135 0.648936
29914 6334 0.972119
27173 14593 0.320996
29646 24960 0.982058
10646 19872 0.915967
13105 27676 0.727582
4055 31021 0.280512
26507 25099 0.375742
10221 12708 0.134703
32608 25643 0.189
22943 14452 0.899748
19023 31458 0.285857
878 17745 0.211915
11286 28164 0.780131
16293 21055 0.995308
7449 23685 0.484096
10867 29728 0.618992
25653 23873 0.354293
26615 7275 0.425559
12338 10257 0.846367
23722 9015 0.00720288
1499 1359 0.604793
5070 12931 0.0969271
4744 13490 0.981135
10334 20188 0.683789
14886 30663 0.585912
8787 494 0.169307
3814 12291 0.354151
10124 19461 0.808374
27432 4949 0.231873
16370 4171 0.171042
2470 26941 0.80166
2197 1188 0.85731
11969 142 0.160537
23848 1535 0.0906585
7347 13947 0.103653
17992 13179 0.346501
13772 24522 0.669398
25343 25217 0.219134
5877 16179 0.322457
11555 16825 0.761009
29848 16970 0.845184
6321 9389 0.284612
22806 14216 0.00346485
22038 12228 0.274815
25955 24884 0.399538
14595 27480 0.79057
25276 14457 0.130737
31154 30018 0.934268
19249 26761 0.61984
27419 6919 0.958611
28349 15215 0.909229
25731 19561 0.449381
5531 3823 0.692105
31982 26971 0.713609
18399 28383 0.227575
20487 22718 0.891731
12679 10259 0.264304
27465 25686 0.111969
18123 7411 0.0655657
3121 24187 0.903998
22892 21823 0.422282
901 3438 0.427326
3638 5472 0.306384
15749 29758 0.506786
7718 22047 0.470911
5314 18150 0.67479
6216 6980 0.620482
10086 6922 0.62469
10621 11278 0.145972
15158 25513 0.469168
1275 27241 0.109622
29237 24478 0.258651
31443 16769 0.954093
30539 24089 0.49711
14872 4660 0.261684
32629 29649 0.446222
6809 9796 0.535697
9523 8766 0.611803
5948 25385 0.201804
9382 9337 0.563414
140 21264 0.0226653
9820 17018 0.0862259
19256 17035 0.681062
14432 7401 0.539111
29144 13280 0.625911
15875 21331 0.212653
29754 3858 0.452317
22246 3853 0.476154
9399 29754 0.390396
2496 2677 0.999925
3202 12976 0.0480011
12492 6027 0.135814
7463 21208 0.421116
21390 7447 0.0360869
13251 19903 0.29601
12788 1321 0.5573
9585 5461 0.387647
4359 16554 0.871619
23586 9614 0.458581
29447 22385 0.595636
14754 5622 0.847853
9864 12449 0.544242
8441 15946 0.83027
26181 9102 0.484433
21823 7334 0.293027
19621 23427 0.0151878
31028 13566 0.569748
9187 9919 0.650345
10335 20749 0.621852
12796 31320 0.903488
8300 7948 0.821137
13699 11658 0.053745
11266 18800 0.831128
28833 20876 0.382896
16450 3618 0.991033
24698 27842 0.301506
19031 5972 0.912346
7097 9869 0.174702
1489 30266 0.309806
18667 22790 0.304721
8997 21676 0.0740808
28422 1950 0.695568
6620 12850 0.114759
2804 6096 0.409965
26350 756 0.312005
26566 26252 0.43837
22860 4337 0.519771
15681 26696 0.667927
13071 4630 0.3515
19486 21726 0.94011
17738 419 0.887484
28861 2935 0.977269
18830 28777 0.781474
29229 22077 0.347451
19385 22918 0.547635
20848 29339 0.82133
8831 19121 0.486083
4536 12229 0.700792
18066 3562 0.485618
31526 959 0.630065
32385 14840 0.103751
23000 29603 0.425198
14826 14412 0.292326
32433 8978 0.922871
32191 8854 0.366138
1475 9274 0.172376
22918 29820 0.264208
24408 3988 0.0338564
15020 7 0.775611
21638 13344 0.0960729
6253 4812 0.860278
8528 26493 0.494969
7690 804 0.1237
13392 26469 0.190426
35 4948 0.973915
19498 25525 0.596268
24441 25946 0.312685
864 1549 0.559849
7563 29280 0.945643
23756 27856 0.509987
11636 13037 0.767538
18356 25070 0.982509
21145 5840 0.621852
11616 1946 0.185351
9796 8814 0.219186
27152 14549 0.511586
17183 8207 0.211795
9854 655 0.641635
30989 13228 0.211578
31551 31831 0.0205763
12204 15833 0.0723995
23040 5732 0.43542
27645 3235 0.314711
12481 17386 0.852897
14176 5411 0.108311
18500 30945 0.648754
3670 3835 0.787393
5816 32726 0.450847
20247 31949 0.770708
26028 370 0.52316
22742 16225 0.471212
2713 19993 0.471225
22814 13431 0.492512
2560 1842 0.249794
24115 18500 0.80338
23552 298 0.239975
25271 24669 0.729188
27920 7979 0.951267
23782 26326 0.536737
18848 14173 0.439831
16835 27139 0.7534
23271 552 0.823101
5388 11510 0.779244
16077 26375 0.479026
2450 23720 0.0986989
10025 26237 0.483283
4758 9776 0.152578
3219 29361 0.856497
17942 24427 0.54277
19237 29167 0.0849273
6193 9925 0.462973
24887 26541 0.50236
27741 27070 0.725571
15323 16937 0.491232
3509 31372 0.53045
30037 6652 0.334379
23647 19755 0.472491
8750 2826 0.56761
11408 11969 0.98702
30621 28986 0.497322
817 7551 0.314123
354 18262 0.0842741
18875 7588 0.635889
23175 18809 0.804584
13010 29742 0.0340514
31424 27234 0.512428
13823 28389 0.141386
5924 16197 0.738054
22455 6418 0.994105
25854 29912 0.00316115
11325 18901 0.13809
18549 4358 0.891589
4717 6506 0.179369
2062 17232 0.357727
6979 23990 0.788327
22484 8632 0.555334
13645 23033 0.205463
26140 18942 0.232921
18984 29049 0.06083
17749 22848 0.0641662
26269 20120 0.462184
23410 31994 0.187476
32279 8537 0.838121
21277 9921 0.546126
19152 9004 0.724146
10719 27086 0.591157
21543 25833 0.949331
32272 11233 0.847691
10873 20807 0.982943
1402 3877 0.867055
16996 6081 0.767354
28791 29958 0.97837
15739 16035 0.408217
11956 5605 0.808374
29528 7851 0.378694
21830 18211 0.21441
10252 10629 0.90409
17243 30892 0.00126968
32563 21437 0.0792566
2299 5615 0.871403
4318 22242 0.461331
29648 31140 0.466216
27435 20680 0.718298
4484 22026 0.445402
7747 18530 0.571705
10310 27257 0.903109
6139 15231 0.866532
7868 21585 0.755401
4326 19861 0.490412
20290 24439 0.116072
4674 16154 0.642331
19930 1211 0.886924
32187 30681 0.183652
22523 7940 0.6239
15669 17145 0.809337
26272 4420 0.0315835
30364 24124 0.991556
20664 25779 0.532918
3676 9662 0.70599
21281 7476 0.797298
15034 8235 0.521947
25014 31464 0.480533
8022 10764 0.295105
27904 13441 0.446181
17 24513 0.98038
23046 18515 0.212079
22044 12758 0.976387
15813 23479 0.921789
10699 11155 0.0242275
11711 23940 0.591424
7525 18397 0.55282
6853 25061 0.771051
3778 25922 0.859144
14351 25446 0.356165
9642 16461 0.700126
30615 24813 0.321572
31841 21475 0.395675
15179 20633 0.289547
29285 23606 0.330853
27325 6636 0.592805
13023 22807 0.660715
29173 7190 0.721524
25781 6065 0.831257
26550 19106 0.702196
18833 17019 0.220366
11999 3598 0.554545
17179 32410 0.0411294
12373 4960 0.766015
6574 1305 0.118505
7822 24866 0.0940664
5392 17753 0.647458
24041 30610 0.996652
3894 15687 0.494864
379 5419 0.950466
8836 8148 0.104214
7457 22151 0.71347
16887 15307 0.172007
317 10506 0.430252
16574 31954 0.99659
13518 13103 0.0509096
12691 12878 0.0710308
31748 25507 0.414908
29755 14895 0.96952
17667 11411 0.477742
24704 2584 0.0469828
6675 22735 0.68551
23582 19533 0.579229
27024 18984 0.314845
27221 2354 0.585299
16323 71 0.952817
19068 6301 0.579439
22590 23470 0.0895487
29984 3050 0.383221
2735 23068 0.441379
32269 30529 0.475568
26396 15865 0.918427
16604 3928 0.570815
24230 31037 0.322629
6961 13555 0.913784
15787 9757 0.572129
18158 14982 0.0248342
15744 32763 0.887519
21690 32096 0.327996
10305 23452 0.53855
24153 12668 0.00154351
16389 32360 0.217665
16688 19290 0.862143
26847 7374 0.671846
264 14230 0.718916
25254 31613 0.375855
10023 28590 0.496884
9492 17352 0.640694
891 27287 0.0659456
28308 14488 0.843153
31035 1755 0.378473
11479 16073 0.790252
1816 21095 0.854951
24005 16058 0.0676835
4702 28984 0.70845
4358 12939 0.633327
22762 1192 0.569818
7374 10778 0.681
7226 2546 0.610324
23031 22842 0.147325
24944 814 0.346843
20487 26910 0.538232
12193 22350 0.293349
15550 28324 0.577668
14449 5584 0.958335
4556 27456 0.65871
8323 244 0.777674
29101 7651 0.42169
6297 32683 0.0413734
14100 27683 0.734708
2044 19714 0.0612399
22890 11867 0.48582
16046 1188 0.751396
9578 26512 0.595873
31948 16722 0.327429
25167 9440 0.903811
32741 829 0.0414094
629 17734 0.0641058
25135 25236 0.640694
30160 6964 0.246662
32220 21243 0.719951
14953 24753 0.22781
32513 6003 0.223811
29220 11096 0.276471
7611 27662 0.679559
27012 23899 0.846317
4872 199 0.44399
27046 30883 0.641623
30800 23133 0.593208
20 11550 0.563795
2668 13491 0.35998
13383 6743 0.619771
10969 29815 0.17863
8923 25654 0.847918
11002 1310 0.763847
3452 9449 0.970321
17248 14859 0.698076
6050 2816 0.877131
18803 12070 0.940019
648 17845 0.448002
888 18285 0.805073
12569 23399 0.918447
12766 17178 0.94475
30635 149 0.182966
19888 28937 0.789431
24831 26941 0.817278
5344 24309 0.648754
4304 23729 0.773552
23471 7803 0.786484
12045 24182 0.713044
5157 7033 0.353291
7333 31078 0.548059
1844 29499 0.598373
1530 28040 0.432891
435 31288 0.630456
21434 17644 0.481506
29847 20125 0.449845
8567 943 0.550589
14679 24098 0.160421
569 1220 0.351805
30327 1469 0.995684
19245 2842 0.0783912
23726 6905 0.259279
27525 19469 0.192736
1530 28017 0.150523
29878 14389 0.00764511
15017 17166 0.375686
25120 9374 0.457338
26407 17482 0.72745
14949 14851 0.52588
7572 19282 0.982837
24408 4141 0.184578
28013 11174 0.209964
519 30687 0.0440725
22626 6077 0.620087
28299 21927 0.488943
10212 19391 0.246436
32140 2068 0.211265
19859 463 0.491887
9711 25689 0.396945
10944 10078 0.828539
28323 28472 0.583538
17935 30265 0.994165
8688 5425 0.439947
13260 6846 0.513814
9695 22960 0.904079
18182 23902 0.04698
20465 15774 0.998103
19261 31909 0.275529
14949 16273 0.951924
11306 29777 0.788591
1395 8361 0.318014
17881 3582 0.906063
31554 9060 0.354151
22715 30719 0.887875
32393 23267 0.964642
30961 30462 0.535502
3572 8000 0.273855
9080 9407 0.905499
26309 29777 0.929947
3773 166 0.15139
8973 5635 0.274754
10274 22446 0.0531025
30735 1638 0.904347
3412 3843 0.654817
5230 15651 0.728311
21321 27241 0.971292
880 6454 0.240333
12161 9634 0.897588
17317 27300 0.221316
20358 20163 0.986624
29293 20402 0.488136
14533 8537 0.787762
29313 29747 0.950503
23647 20251 0.592921
1826 22733 0.975245
24689 10990 0.856287
1915 328 0.288656
32306 904 0.596759
16743 13134 0.735617
22464 26589 0.971933
22067 4234 0.289436
13969 30278 0.546322
28521 16621 0.699072
29336 17587 0.2523
15058 11209 0.0120509
30827 7246 0.202959
14747 1601 0.357463
32330 12045 0.573687
25306 13908 0.512661
17090 18678 0.182403
55 10370 0.0303248
88 5014 0.312587
27960 29584 0.961013
2537 7118 0.0603122
32691 12166 0.788591
27184 28770 0.0717083
10952 5692 0.40643
15708 27958 0.31171
1419 22176 0.682676
11518 27185 0.994637
4715 6522 0.91302
3569 21593 0.0214998
2862 31546 0.606664
31803 3323 0.963754
8051 13118 0.986373
9785 24928 0.105121
28693 20979 0.0915355
8791 161 0.712285
23940 25686 0.236271
18470 6448 0.724756
14066 9560 0.254307
17455 30073 0.450398
22245 19951 0.65168
6523 26427 0.879575
11762 22233 0.228574
17421 14709 0.49711
16245 7807 0.0926583
8350 20600 0.979646
2267 21260 0.665197
5985 17945 0.824821
11403 21600 0.280942
29580 25099 0.272157
10510 16363 0.257657
26434 7295 0.681146
19532 32410 0.824113
18113 11852 0.0141097
29968 188 0.239206
5498 23669 0.147473
5380 18702 0.937502
13931 5414 0.258542
1502 18854 0.729057
16676 32536 0.162035
29538 17304 0.711547
18489 32260 0.66074
16642 19560 0.00362567
19603 11608 0.00242458
18678 30645 0.204214
5441 21191 0.565868
27442 2003 0.470083
9256 17285 0.828866
20290 24028 0.604337
803 24460 0.0443042
15556 30983 0.108773
18113 14081 0.353191
3587 31837 0.400518
9702 78 0.347534
4538 14271 0.248859
14365 30484 0.261113
15133 19397 0.296633
24792 29909 0.685852
12047 5346 0.0326563
6180 30926 0.660693
13527 28258 0.80011
17174 23751 0.415414
10212 23961 0.90995
19321 22385 0.62186
12303 10748 0.230855
16128 32044 0.937693
21845 10866 0.563723
9426 23770 0.12384
32402 7641 0.272705
7747 22659 0.602005
2392 2539 0.138712
14892 568 0.399073
15828 2525 0.804392
27982 9117 0.666177
5728 4236 0.778224
24453 1149 0.283258
7182 25208 0.502119
5091 14464 0.447404
20583 7677 0.719865
20912 1554 0.821657
27605 21589 0.713225
31267 759 0.786584
6027 13810 0.358
6798 28983 0.7985
26805 12895 0.578587
27763 24396 0.384223
30869 28788 0.000909628
26733 26523 0.20879
1979 3673 0.26965
31232 2429 0.698943
24999 13025 0.471212
22992 27472 0.0113547
23767 1162 0.506918
3646 31814 0.439544
19039 9717 0.803302
23300 23915 0.857787
6857 30506 0.137281
28876 23624 0.26484
23074 884 0.835659
12449 13669 0.286326
24671 1896 0.972265
13175 19443 0.0902204
15986 18227 0.404158
22719 23751 0.207418
6357 19226 0.0449221
2819 23364 0.607459
11505 4996 0.982837
11946 31534 0.389675
5321 31545 0.114922
28441 12384 0.537455
24534 18999 0.179976
21450 25162 0.609485
872 11995 0.716164
10938 10213 0.662657
8236 6436 0.398789
30999 29074 0.0739905
14427 28273 0.424259
13827 32084 0.358599
10907 5684 0.135665
4030 27613 0.0710591
22846 26057 0.71089
19378 11756 0.848154
21368 1731 0.295856
21995 20237 0.507535
30882 23203 0.777435
29458 6323 0.507535
27601 27919 0.403709
24439 23320 0.278876
27477 5856 0.944073
20737 763 0.524326
2388 32354 0.103416
27565 9974 0.114335
30151 23785 0.525875
12933 16252 0.0510312
28989 18083 0.294397
23814 19226 0.649637
11909 10911 0.293069
9600 30267 0.939533
11954 13390 0.911924
24670 22292 0.674518
29086 14320 0.581596
24473 10877 0.293027
28941 8045 0.621532
2661 21260 0.285333
18548 6202 0.13739
6092 18127 0.215092
18723 30134 0.511855
29339 1483 0.853364
16375 771 0.161108
6958 20936 0.234691
1710 30988 0.565094
27515 14061 0.891918
24991 27308 0.925537
17914 31832 0.806558
26561 3280 0.0353843
8017 28441 0.940515
22491 21396 0.210791
32294 1845 0.779719
4087 6821 0.615419
12923 12855 0.0322936
12551 16330 0.15085
435 4760 0.963457
7588 30381 0.527773
25751 29707 0.827197
31993 23540 0.843152
19145 12306 0.159066
31619 13428 0.953264
11950 3068 0.9028
26081 29991 0.969346
12752 20236 0.826625
4989 28304 0.815895
14812 4054 0.551233
15251 13723 0.431718
27495 14964 0.646555
32690 31974 0.506061
31525 20639 0.449168
27058 12441 0.337147
1107 19486 0.40123
21346 15427 0.252399
14749 23024 0.43889
32629 28120 0.103953
3638 4444 0.00838507
9082 14484 0.743399
31648 11198 0.101701
18801 32737 0.542958
9828 19432 0.71758
1923 4421 0.763337
16492 27363 0.708824
29412 16527 0.0182365
17 28331 0.859144
1242 560 0.00283546
1831 7470 0.836998
11369 3826 0.18627
8664 23111 0.293027
2138 10143 0.328287
9850 31900 0.299421
30104 22991 0.614449
9561 28282 0.483744
1591 2253 0.213224
14467 1099 0.475286
19872 14467 0.0704836
10166 12715 0.776342
12415 26312 0.78239
14393 3894 0.357065
5225 1934 0.493238
61 3152 0.119961
17760 214 0.677833
17627 29756 0.639219
8177 4839 0.71692
24146 14232 0.537638
18836 2551 0.827447
15923 26136 0.564724
17204 30444 0.890341
23605 4778 0.413712
17423 10916 0.486414
20810 17287 0.237925
17915 21992 0.986624
2558 24561 0.127275
10432 14929 0.671047
31175 23721 0.246376
18495 7561 0.928764
9102 19493 0.928287
10962 22283 0.64319
11047 9480 0.638491
12739 30379 0.869726
16240 19229 0.954492
28932 21549 0.0679961
18923 25038 0.134241
6209 25316 0.446646
18324 20408 0.480442
21084 30544 0.667927
14490 1947 0.914643
15306 16053 0.00222816
25053 25 0.936506
18391 26461 0.404219
3321 3516 0.435525
10102 7054 0.281061
29115 4967 0.233762
16183 9815 0.101152
12445 10265 0.934328
5220 16448 0.917108
14731 23032 0.0158611
17573 5362 0.167193
10379 9926 0.209642
27977 23225 0.326779
4428 3328 0.688352
25562 24776 0.201236
31054 19607 0.508578
24873 10410 0.94131
17635 1662 0.704796
18628 21155 0.679756
16626 23688 0.076665
20100 20972 0.00284045
26218 20072 0.160853
9808 15785 0.510055
5099 1995 0.617405
5640 17657 0.972475
15794 32022 0.0450736
10985 15617 0.917025
28755 19351 0.587608
15627 12918 0.290224
24114 2951 0.45111
14782 29583 0.761122
11635 17775 0.0487805
4509 28881 0.994645
15700 12550 0.89591
6889 10423 0.844687
25550 18622 0.0142865
18630 19151 0.134239
29884 29260 0.730525
24310 30494 0.658437
11897 4318 0.246115
19320 18280 0.534189
27856 11587 0.616675
28820 31875 0.57074
25787 9451 0.29662
22942 7466 0.181166
11785 16890 0.0682825
30755 14064 0.772203
22192 10391 0.679237
17808 30447 0.398558
8459 24338 0.351678
29827 19013 0.270073
131 12457 0.236361
8168 14472 0.0183711
21962 22520 0.219927
28657 17685 0.181775
21964 23880 0.288685
4396 31534 0.69202
2555 6426 0.395489
29784 12373 0.977946
10528 29033 0.270078
7581 17467 0.569302
4443 25182 0.39417
28849 29055 0.693539
15044 9884 0.388084
10120 17727 0.0366558
13862 27204 0.652925
29516 615 0.281457
10785 21069 0.85165
13792 5067 0.144445
30839 11187 0.335965
21564 6188 0.128958
22382 363 0.0628893
31155 18007 0.751419
4078 24768 0.480944
17032 28134 0.500856
6643 6832 0.770118
13650 5530 0.748961
9080 12823 0.340136
582 10723 0.295651
26003 32684 0.837194
955 27961 0.983795
15415 19413 0.483697
32179 22320 0.872547
8180 13325 0.63784
22764 20974 0.16196
25787 6956 0.422693
18821 22179 0.397987
25446 20470 0.16629
910 19366 0.189874
31648 13254 0.51691
3677 22509 0.609492
9766 25820 0.600374
14892 9555 0.330826
31514 24719 0.879476
10831 1328 0.384359
5295 23389 0.924105
6636 20284 0.748416
21703 27282 0.699852
2074 31458 0.552322
4542 22622 0.118382
30214 4433 0.584829
19987 22724 0.245763
10051 32249 0.328369
24907 30472 0.883718
16173 3632 0.870732
32217 3905 0.499871
4242 19988 0.658931
25036 8238 0.800945
17097 31119 0.464255
11775 20630 0.141152
8687 20561 0.19133
21482 10505 0.416912
8674 26937 0.810217
7700 7337 0.558056
31450 4466 0.0166282
23345 22019 0.640465
16481 10001 0.669932
12260 6799 0.605671
1162 1652 0.944033
8670 24564 0.453674
9560 14608 0.593581
10556 14332 0.320914
24832 11524 0.834086
15849 31966 0.347329
18504 20459 0.11244
20283 2906 0.115255
20934 7065 0.00661999
24247 14129 0.150348
28110 24244 0.0868464
2195 29511 0.551715
14516 4537 0.0662617
27583 10620 0.104492
30557 31770 0.287505
6733 13694 0.401152
28604 9696 0.0542707
11185 23333 0.201236
18307 29155 0.108013
22163 23296 0.252399
28112 19873 0.774219
32217 18570 0.192181
28010 12750 0.634412
24725 15740 0.0316963
8680 3342 0.848626
28851 27392 0.123619
26509 13984 0.866452
14483 13500 0.0742968
6609 30105 0.537026
2659 18321 0.180007
5412 32554 0.329065
31198 25311 0.21573
7438 24791 0.544651
17178 18638 0.203756
13230 28795 0.633977
10243 27554 0.986227
15516 10546 0.92494
3036 9401 0.181439
30182 23661 0.223155
29538 4809 0.74343
12632 3774 0.331058
25565 16819 0.134362
26603 3451 0.94422
29054 7138 0.746445
8346 16645 0.944356
9002 8999 0.27403
24785 19967 0.328541
32023 32097 0.374832
30487 26832 0.992469
19226 30849 0.0550897
18100 17786 0.267381
19375 16051 0.86906
22655 429 0.22464
30705 28405 0.881094
30365 17951 0.609123
11873 18672 0.329636
1578 10581 0.144455
5079 27818 0.994105
2873 21207 0.906275
9374 29250 0.343763
24950 3172 0.516257
1592 16013 0.464569
31784 9224 0.247713
676 17526 0.471401
11352 17035 0.678708
6108 25308 0.0532263
14807 17672 0.51425
30326 22076 0.167213
30601 17261 0.788066
2495 28035 0.21498
18888 22656 0.835424
19758 30806 0.410714
27524 12685 0.42029
7029 10361 0.26387
10569 2683 0.372206
29262 31410 0.123114
13124 16372 0.797969
16559 32310 0.692562
9702 8683 0.0998244
20509 8548 0.763746
17245 28489 0.421789
6534 2620 0.960595
23083 11306 0.257047
3880 26489 0.711547
5444 10619 0.789914
13462 21646 0.752002
18176 26218 0.889913
19952 15616 0.899727
11377 19334 0.495443
21636 8562 0.568008
14021 13618 0.887886
23197 969 0.22352
7556 24636 0.110271
1207 7472 0.914172
8758 25454 0.672384
21294 27295 0.0226653
22854 30776 0.612797
10619 11614 0.136947
2044 5700 0.488943
22432 18144 0.992198
3099 14346 0.0267325
1593 294 0.122946
24041 22247 0.055913
17696 14207 0.584469
31854 3047 0.928126
25940 2513 0.23366
25241 4617 0.666199
8039 2650 0.939256
10563 23256 0.1188
2448 17622 0.333947
11781 17934 0.830819
11199 27040 0.295643
5789 4696 0.362454
18452 11051 0.760925
2445 32760 0.434024
2607 387 0.232483
8272 17655 0.852943
6331 4047 0.320591
25704 23749 0.177896
31637 23118 0.990272
14804 847 0.284107
9160 15470 0.00255126
20644 17405 0.868241
31708 13590 0.139665
12987 1040 0.929812
20494 22672 0.398057
20361 4569 0.876539
22753 31414 0.364274
14053 29004 0.94149
7388 13875 0.498049
16891 15709 0.211062
2785 8907 0.405549
13670 11727 0.917249
21817 5973 0.341004
10854 10806 0.367004
21739 4852 0.825583
19979 14666 0.86906
15670 970 0.664603
18341 10172 0.140803
16628 27591 0.868417
23852 21871 0.094109
560 4290 0.839792
4889 18991 0.716112
24147 12161 0.79711
21236 1144 0.976446
29711 1178 0.537296
30789 5558 0.00785461
27098 30330 0.999434
8892 17426 0.678221
25389 2604 0.0183616
27143 946 0.19632
6265 10840 0.0986989
25927 10125 0.309735
31693 26052 0.178231
8457 24081 0.209492
17242 25287 0.848786
23240 28753 0.774667
14317 13511 0.77127
29587 10830 0.565846
19692 6887 0.292487
12623 21601 0.0932627
7024 19683 0.0434979
17192 31052 0.296829
19598 5814 0.610446
29907 12521 0.990093
4445 27289 0.26478
31696 5428 0.101152
6811 12575 0.885025
213 7617 0.463504
19451 23167 0.715965
21531 7644 0.214862
26227 9251 0.702911
31174 16689 0.536577
30468 9451 0.424259
18016 21300 0.52316
22696 25025 0.415414
17874 21665 0.75205
1450 22401 0.0223642
20254 11404 0.0750526
31138 25987 0.220196
23851 17011 0.785795
3700 29453 0.875072
26604 18838 0.148429
735 25610 0.260549
26344 309 0.502818
19888 29641 0.547918
31475 23409 0.323487
20196 23615 0.396693
12887 29775 0.380451
28796 19204 0.30055
1123 27351 0.380782
15557 1490 0.446222
5203 24709 0.5164
20087 28719 0.308947
6092 23432 0.0995662
18417 12167 0.693363
17432 28453 0.244562
29146 6175 0.560781
6811 18493 0.926238
3586 2282 0.343956
15950 25502 0.00927285
30190 24273 0.524109
30306 12045 0.5769
1810 14295 0.382562
30906 32205 0.801519
8739 7333 0.739033
32600 28331 0.717714
5683 19460 0.956077
11863 24740 0.99432
6936 12946 0.15855
27588 8123 0.448783
2703 16942 0.761122
20941 21889 0.824729
2742 10411 0.56614
32112 20380 0.300965
5 11890 0.964195
9289 13333 0.871092
12324 29852 0.762805
14445 29358 0.740803
24857 18833 0.0251587
26585 23779 0.927759
6171 5707 0.746214
6784 18194 0.00122393
30001 28003 0.634298
26075 9297 0.439906
12660 12951 0.00143133
17996 8959 0.082069
1741 30673 0.968899
11494 5043 0.971947
18650 15897 0.438308
15581 27844 0.442843
16541 26103 0.917951
16127 14846 0.369448
20022 22384 0.68667
24614 26926 0.710221
12020 12261 0.404631
29152 12951 0.646555
20733 1464 0.0510587
28611 21308 0.287223
1400 29043 0.99331
20620 10793 0.604171
30368 29240 0.582069
7830 266 0.323882
18164 13324 0.660075
5033 21088 0.632543
8434 32006 0.733923
5854 23414 0.74835
9830 20762 0.350769
6273 21724 0.43685
5446 1120 0.790984
16123 16695 0.354624
5715 14267 0.429207
28530 2287 0.654042
4499 18003 0.139964
662 10561 0.225883
22033 1844 0.963503
19935 28542 0.342596
18928 16096 0.0746564
17425 14650 0.0599809
6478 12016 0.857377
31847 20600 0.303982
27944 29230 0.122946
6773 25848 0.898453
13088 28692 0.0486375
6985 16851 0.258286
4381 3610 0.385266
24290 13067 0.45749
2168 4567 0.654777
14598 6906 0.537205
31994 5448 0.0680706
16117 21894 0.679813
16776 22243 0.344587
13071 14976 0.122285
7329 1591 0.67927
28298 14465 0.291669
11509 345 0.581985
456 24022 0.666373
6799 9767 0.8585
13313 10956 0.102481
12415 22875 0.993346
31602 25006 0.340146
23146 16738 0.600585
5496 24424 0.994049
14209 3735 0.672508
19261 11920 0.569299
19319 1409 0.146928
16553 3338 0.796376
3996 11379 0.833691
11073 13478 0.517259
29684 1130 0.0504036
21391 14672 0.697173
20090 17791 0.912564
10367 9502 0.500783
22497 22799 0.683037
27043 11820 0.833494
20539 27785 0.21573
31928 31547 0.485381
18154 16600 0.106091
4380 22445 0.23376
5298 19858 0.0641379
4779 11882 0.00141272
5699 7527 0.99158
18922 10264 0.294451
22680 20210 0.468191
3312 16403 0.0670467
2018 27294 0.649294
2702 27242 0.296007
20101 2809 0.83667
24432 19007 0.827246
31643 1413 0.831829
21702 6709 0.865694
27488 25882 0.820397
10084 1214 0.505893
18947 4000 0.563064
23745 5807 0.413328
12230 22299 0.707945
4584 7469 0.57703
1629 10209 0.123989
12264 5679 0.789847
18532 7852 0.450916
17893 22661 0.375987
7904 2144 0.292315
28930 14067 0.073729
32267 655 0.571175
31739 662 0.457462
11562 2110 0.232492
6024 23588 0.645183
8571 5746 0.71089
3484 4612 0.00667754
24280 9963 0.452534
5744 8323 0.256564
29046 25813 0.22275
18114 20531 0.138307
9334 14596 0.981173
11367 3225 0.756377
31523 19910 0.279319
29033 7697 0.898361
32379 21928 0.393616
2567 22649 0.458748
28057 23700 0.786484
4865 11495 0.874826
727 25099 0.558468
19870 16289 0.109578
21147 16180 0.903616
2211 25573 0.378023
20782 8028 0.556674
18156 11853 0.0159451
19992 29507 0.788593
18624 13704 0.216435
23637 22695 0.503667
10722 18071 0.707321
26107 21881 0.295141
23659 1485 0.355733
20405 32313 0.13049
24681 31798 0.203118
7365 24328 0.314156
4277 22634 0.0120509
31655 3701 0.2863
3581 15349 0.220183
17537 24527 0.163331
9643 31444 0.820022
29427 7949 0.634183
4818 1587 0.79567
30630 5385 0.681004
29030 30593 0.223283
10867 30405 0.587908
25545 504 0.967543
23963 21692 0.132578
32469 13655 0.223921
18647 8488 0.204536
25088 23592 0.541745
12292 15768 0.320177
11338 14532 0.299398
21774 3544 0.838674
24972 12656 0.847249
19595 11241 0.618553
26962 3129 0.324077
26228 25630 0.811639
28681 24721 0.229505
17622 17484 0.563766
26744 8143 0.261175
24428 12690 0.0261225
18896 25832 0.611326
19978 31044 0.887525
20810 25633 0.120672
10240 2974 0.991573
12712 4145 0.403491
4132 15584 0.0713374
30301 24449 0.459991
6882 30224 0.149819
5380 17404 0.0158611
14723 17547 0.00558726
29499 5730 0.83954
30099 26412 0.629775
26522 8205 0.966449
7016 10272 0.65388
23028 13742 0.524378
18338 22216 0.287405
22869 29684 0.480648
6230 13541 0.192771
13605 10802 0.829252
4988 17654 0.869263
26844 19343 0.0164877
6033 4201 0.0353904
22382 24274 0.661028
13920 15576 0.859955
3303 5638 0.795809
32219 7203 0.483199
9457 12663 0.140293
23989 10093 0.191504
24645 27331 0.88095
3424 2724 0.541073
4164 17191 0.269798
5898 32022 0.769273
4607 4319 0.543334
31889 31516 0.217699
18210 28812 0.563952
24127 23742 0.25093
11453 2965 0.966395
21574 21538 0.186317
965 2392 0.950674
29106 24222 0.164765
23758 28317 0.15564
7618 6615 0.941591
22687 17927 0.173527
2061 30714 0.16239
18721 6943 0.790949
6430 5478 0.675651
22466 31057 0.607459
5604 16002 0.0838066
22071 17376 0.892774
14106 3383 0.0432671
32078 9800 0.858193
8515 17783 0.676872
2670 13225 0.277368
3705 11714 0.357463
9061 7577 0.290248
16473 2505 0.280942
20099 936 0.019471
9139 6264 0.452735
26185 16663 0.245884
24583 21404 0.818594
6135 27127 0.27695
21785 16185 0.812839
13493 15662 0.306321
29387 27750 0.233807
3919 5815 0.803407
10073 11761 0.507317
10960 12896 0.850544
18027 5022 0.200575
28050 8090 0.211679
21018 17497 0.15564
4502 31206 0.548816
18459 27627 0.173239
2769 5960 0.386449
22918 24892 0.649869
3760 13429 0.515296
1227 11304 0.949577
4608 13038 0.740105
4143 25793 0.57399
6604 14174 0.862512
4249 6372 0.368203
2327 16023 0.32997
9246 11286 0.751994
21846 2091 0.355414
10008 12495 0.25263
63 8916 0.879476
31559 31148 0.622085
8572 21389 0.40643
21245 18160 0.26381
15785 1311 0.68859
8118 28885 0.230259
9057 16709 0.964743
31131 15934 0.503798
21126 21942 0.503824
5783 4955 0.164707
20133 12377 0.917108
15073 26960 0.418298
7568 15685 0.23277
27533 2898 0.182381
20367 6923 0.225773
24578 826 0.750731
25266 29319 0.478091
27206 8097 0.196143
6599 19710 0.968108
10088 9936 0.00917519
8701 30551 0.891805
2651 21633 0.986516
17640 25508 0.499288
5594 8432 0.947923
30165 741 0.323236
679 197 0.711937
5314 14100 0.441987
30964 22734 0.247476
9992 24610 0.0204757
17060 13618 0.0694566
27230 10806 0.579914
12081 18563 0.0677264
8811 4662 0.994526
32663 8048 0.67441
29705 30935 0.475978
28971 7938 0.532189
13866 31664 0.383471
22712 5892 0.952284
27443 19660 0.565453
30221 15242 0.550857
19598 26971 0.90371
26293 28258 0.869211
21896 28235 0.645808
919 10314 0.283112
31638 19582 0.497088
21464 30896 0.00703574
1841 13530 0.0559266
15529 28334 0.372206
22398 11018 0.461574
14135 4343 0.842559
25598 14611 0.496431
9464 29834 0.311521
1350 8194 0.703067
29456 4412 0.707374
5606 4743 0.646083
20195 12879 0.633714
31405 24860 0.93027
28408 28966 0.476804
31615 14843 0.0869226
27524 11119 0.0513326
1467 19336 0.353764
26373 168 0.537455
30416 23073 0.68859
8276 23455 0.0692074
8864 10563 0.0817263
24239 12799 0.0466799
17321 27005 0.0851807
5796 27239 0.324044
6366 30933 0.376704
18538 5757 0.966204
22420 16941 0.314778
30176 20612 0.288366
32234 4029 0.341805
23774 23201 0.511525
4558 1886 0.73191
11993 1706 0.527089
27589 24422 0.763646
7527 17186 0.156881
2146 24750 0.0379446
15489 10892 0.681002
19163 21745 0.481611
9061 19804 0.29662
27192 2339 0.045372
22142 25302 0.355791
19530 4500 0.0575681
1055 10593 0.387318
3388 28893 0.00139368
13160 24991 0.230983
31435 12593 0.54836
30405 28414 0.724932
30253 31288 0.108774
31358 21504 0.663783
18678 32713 0.918717
24747 3028 0.634846
30588 25014 0.394052
24589 27795 0.570497
10007 29497 0.912274
14854 30268 0.53636
17333 626 0.104558
10083 16085 0.0604387
2691 14715 0.0420754
12011 15820 0.883649
2865 20477 0.988026
29058 27819 0.563644
18719 7720 0.209365
12561 13948 0.248846
30024 11992 0.343907
29110 28202 0.992779
511 683 0.804379
7553 24677 0.521839
28318 22806 0.513013
17281 13683 0.336437
3315 6636 0.271155
26055 25845 0.480147
31940 17232 0.892774
11598 19534 0.291205
12531 3069 0.0435417
708 30766 0.664374
794 8282 0.892972
928 25260 0.919854
1002 28400 0.0291084
21515 7312 0.210315
16548 11376 0.427757
23408 29398 0.106819
19064 2118 0.960405
2929 11946 0.791381
6799 1882 0.175332
9076 8150 0.195158
5917 25211 0.851439
2104 12334 0.978215
348 17787 0.969856
1135 31916 0.00816244
32023 2766 0.377554
21898 22472 0.24677
31363 18192 0.49323
27015 32365 0.739181
1879 24280 0.83848
16741 10631 0.335617
20835 20757 0.52927
7456 32349 0.0591877
28659 21061 0.239822
6932 15599 0.734948
29747 18956 0.938679
17328 17144 0.728558
2147 12293 0.961422
4390 16984 0.284573
7097 9701 0.824926
20484 16087 0.719753
7751 21870 0.15947
13710 24681 0.398712
27960 24962 0.22352
3565 14133 0.939521
27165 7924 0.780858
2957 29451 0.333439
26139 28049 0.595707
20969 7480 0.104499
18455 17249 0.560975
6200 6017 0.793151
9762 23966 0.778766
11440 19394 0.792708
8389 25494 0.286539
29243 26130 0.0715176
4190 7934 0.67535
13350 3067 0.346364
32320 8252 0.362343
10087 15465 0.142029
3634 2250 0.956287
517 10513 0.62052
240 32164 0.00473635
7657 15364 0.279952
14723 24017 0.649148
23926 27943 0.465426
3933 1841 0.391907
12079 7638 0.216494
21292 21008 0.127993
30777 18360 0.132816
31264 25055 0.021107
32337 26096 0.246167
1825 6008 0.763547
21238 9500 0.624943
21257 4174 0.469727
25609 1965 0.625506
895 25068 0.475818
20415 3504 0.0147413
14881 18190 0.995829
27548 15629 0.278876
65 5613 0.393428
28369 15351 0.0162233
13430 13491 0.520487
24415 22883 0.374832
31604 3973 0.688991
27962 31758 0.68254
3311 14496 0.88481
2560 29732 0.715218
614 23165 0.305107
21361 10125 0.430312
12663 370 0.465426
17170 23107 0.422917
26266 32027 0.221696
26058 9916 0.427027
32335 1356 0.169767
11213 13983 0.658342
24662 5538 0.534159
7147 20944 0.0571705
11291 32018 0.76502
10952 18108 0.138096
15951 7146 0.339983
6995 140 0.894927
19780 11586 0.508031
11225 9720 0.676889
15119 24954 0.870242
2384 21530 0.0458488
22137 9374 0.90368
2997 2763 0.244547
32218 22257 0.885741
27592 31825 0.884825
10120 17765 0.978688
726 13611 0.538954
7852 13143 0.23318
31262 21385 0.982352
18735 12118 0.929812
6893 15833 0.174712
1675 87 0.765507
27338 32009 0.584986
28708 18049 0.779596
8896 28992 0.539468
15705 2097 0.015325
17428 31655 0.861707
1691 8114 0.603171
25870 3083 0.221316
14801 10195 0.284171
8878 20816 0.85414
19551 31418 0.31673
17782 8803 0.323375
29128 30943 0.0812575
31286 2334 0.30393
4265 14709 0.407928
6126 29120 0.280649
27014 24678 0.93051
19882 24191 0.161763
27824 7366 0.806654
32477 20061 0.488274
9641 3779 0.383096
8491 10435 0.402656
8652 25647 0.351536
23348 7417 0.106737
11620 27323 0.669916
10994 21013 0.903912
24197 20601 0.336733
8679 15994 0.647179
19088 5797 0.357657
4169 9690 0.892973
5218 13778 0.560451
25191 20508 0.911924
16684 6232 0.454946
7295 12962 0.974225
8324 14930 0.155404
21712 15842 0.35961
23242 32073 0.11368
18547 31093 0.337949
19927 28472 0.767108
24793 12308 0.750072
29723 30433 0.693419
4370 12993 0.0782182
10353 7277 0.0978293
20318 11540 0.394919
27970 6376 0.500027
14159 15289 0.678301
2418 6864 0.721287
18046 25098 0.438984
31473 22395 0.493851
17633 3224 0.580576
25800 2582 0.292956
1378 17692 0.413745
7265 5146 0.423504
6018 15313 0.944337
32714 5961 0.114612
17453 17552 0.416166
12077 7215 0.299193
16485 5829 0.396654
19810 22720 0.373782
12464 2039 0.358672
19652 17641 0.246054
11873 26558 0.116039
23056 14122 0.314399
6157 29777 0.514459
28302 7278 0.403135
22847 18934 0.703325
20751 13179 0.0784828
19091 27594 0.67803
911 5679 0.721717
25292 23176 0.525
1899 5495 0.408762
16986 1591 0.506309
852 32181 0.623832
30057 15054 0.645808
15298 11638 0.060891
14101 13756 0.568862
15925 4805 0.0728916
14106 3514 0.611395
10692 5537 0.553906
2908 10470 0.868943
6180 16071 0.0470544
22669 5153 0.422295
27501 19147 0.754782
14546 17390 0.205343
10299 13138 0.537689
15905 26858 0.874197
24267 26783 0.410411
31897 13304 0.224753
26701 12579 0.152973
1583 23966 0.279563
6531 18480 0.291561
23047 27477 0.989482
4233 8576 0.649488
18114 24080 0.221384
20850 8765 0.628592
19859 2104 0.57246
4528 21563 0.778109
22768 585 0.176269
6656 31275 0.823168
9225 13783 0.815962
9820 18968 0.0366249
21936 12686 0.270465
18264 28022 0.636035
20844 2802 0.737524
29259 11192 0.505831
12390 28968 0.12367
26266 31035 0.429215
4542 12348 0.864982
12673 27213 0.816213
20547 16554 0.494436
19096 10807 0.101975
24926 20861 0.664136
24951 20779 0.674794
21099 26754 0.842687
4461 28948 0.95617
14569 11008 0.0287266
4086 30648 0.0664895
19414 23723 0.476829
15187 20780 0.00435422
14391 944 0.700427
31816 20204 0.67927
19249 28628 0.995875
18461 25346 0.341981
9724 17779 0.586849
887 4221 0.648641
32205 2419 0.0872434
15564 3333 0.812142
14159 4091 0.457086
11296 31047 0.664603
4393 31187 0.703446
29119 14196 0.839715
7582 30852 0.209267
15970 2525 0.117371
6774 19894 0.465454
19527 22979 0.492277
9667 1910 0.740356
27831 31264 0.579914
26197 19434 0.940392
24618 31657 0.302318
2068 14891 0.333109
24004 31275 0.981775
11632 1124 0.0175054
13475 15368 0.996345
7299 17631 0.207418
3871 22262 0.230323
16783 3703 0.584392
14530 19124 0.549436
26832 12382 0.773323
19414 23368 0.911696
17915 20710 0.301289
4130 6937 0.191291
4928 18149 0.609492
23512 13328 0.49085
28938 12784 0.794429
30930 10404 0.532878
7008 6271 0.252179
13351 28646 0.827655
27145 27455 0.980131
32417 24306 0.501648
17632 12870 0.177112
11154 23034 0.00358823
4789 8054 0.142029
28228 20134 0.366077
24274 3387 0.000757639
2846 20795 0.519603
31212 22939 0.361239
11373 3905 0.873767
24040 11450 0.299619
17566 30746 0.723948
28975 17261 0.884445
5635 13246 0.418936
6815 13226 0.77969
26379 28718 0.242551
27992 13327 0.374096
17030 22807 0.713382
30212 26736 0.62186
7626 8503 0.874756
32269 4876 0.439831
1913 7950 0.701508
27437 22326 0.269063
10622 3472 0.661743
31335 4386 0.0779871
21850 26080 0.77127
23677 30436 0.0579757
20137 6095 0.654853
4404 22179 0.894296
29009 26742 0.149235
4630 22937 0.731697
20824 31672 0.864932
19954 26107 0.102418
13251 19890 0.928287
22342 16529 0.213479
29536 32622 0.971573
31657 3471 0.420912
3201 21275 0.776974
7514 4081 0.709165
31457 25963 0.760705
17624 21410 0.279696
7959 8455 0.300601
13316 23710 0.669964
8422 30541 0.957308
18788 22188 0.101865
16208 8503 0.0486538
13337 20070 0.513022
31638 13672 0.461208
20636 17349 0.116841
12491 28097 0.783456
32682 26725 0.568251
19788 10131 0.952008
9928 3086 0.19863
28499 16759 0.619347
21092 32571 0.810665
5231 31287 0.0865018
16699 2878 0.575368
30323 506 0.41623
10247 19801 0.506148
29827 17531 0.551731
27759 24150 0.305762
23270 18998 0.00727182
9998 26753 0.0793367
23441 29025 0.0967214
2623 15409 0.950094
13990 26660 0.652772
9363 7907 0.142481
25281 26388 0.644472
27311 4161 0.0267325
31132 28889 0.381126
9047 2375 0.841379
29095 29105 0.581629
11066 27411 0.968108
10196 15752 0.0126493
7949 2822 0.62544
5187 9926 0.590894
1039 27059 0.302531
18197 4468 0.399764
21133 4467 0.454537
11990 18059 0.46263
17201 24793 0.863547
10073 13884 0.619081
2384 17656 0.0773819
26125 28432 0.949846
5938 20814 0.812839
19815 2304 0.757822
19349 6521 0.221332
25318 24356 0.918902
7794 22408 0.889941
914 28282 0.502828
27284 30840 0.309393
9524 28718 0.168242
18296 11716 0.633977
11446 16727 0.756004
19367 20512 0.473069
20215 13799 0.311221
27052 7029 0.0558117
32615 21884 0.88985
17383 20105 0.507851
3281 23945 0.873741
26592 2901 0.328412
28550 22657 0.590864
27208 3699 0.944114
5721 5684 0.146032
3367 2640 0.0290838
31741 3339 0.772675
14864 25794 0.948135
4452 17867 0.0206186
1594 10022 0.289085
11685 1822 0.822851
16892 29268 0.326164
24606 20854 0.0271658
5470 27107 0.79237
15594 17210 0.781215
8735 2928 0.113078
24452 21952 0.425584
6296 8106 0.446215
12282 21403 0.32717
28454 10508 0.317177
17235 26028 0.826579
26564 32306 0.448795
2095 16514 0.653879
6146 3781 0.447696
16884 24210 0.28342
21346 24672 0.613235
8383 17003 0.822963
28652 19146 0.16196
12149 1540 0.661152
21999 13047 0.485059
23266 6820 0.436255
477 15363 0.155763
19331 27247 0.35246
7240 13076 0.221258
498 19197 0.96684
16168 14951 0.567709
15402 28953 0.873741
11243 15968 0.678282
10204 15411 0.840979
15454 15649 0.866508
15864 28211 0.510982
17772 15647 0.2332
11431 32420 0.149247
14232 22589 0.101783
4371 25225 0.807176
4663 18794 0.647802
13001 7154 0.510575
10844 1134 0.0796774
18470 6159 0.801902
6100 23742 0.211578
20775 16026 0.358886
29880 19320 0.0156278
3884 7845 0.41459
31459 15455 0.366334
4896 31161 0.885025
17465 32342 0.232107
9263 7973 0.527329
12888 17673 0.226943
27900 1342 0.71692
11637 28918 0.329939
9856 4452 0.26461
15466 28014 0.458122
27526 12824 0.637546
11608 1885 0.709128
18205 18913 0.690011
13830 14465 0.315878
8120 24205 0.763394
22596 22007 0.444346
22559 24655 0.284196
23320 4493 0.287823
15626 23969 0.625686
32259 22143 0.408763
16361 20984 0.286448
22027 24816 0.00947925
6374 12532 0.748843
24576 1428 0.511035
16791 11193 0.210999
5860 12570 0.888108
868 32226 0.257731
717 28581 0.797634
15544 26240 0.352307
25003 22 0.645372
9726 9811 0.983527
32580 22108 0.213383
12054 23960 0.142483
8724 13441 0.187578
260 14611 0.230875
562 11972 0.350497
24119 31544 0.316178
2650 9184 0.12434
9814 14067 0.13889
30060 4500 0.984711
32270 11004 0.059964
29188 30166 0.51182
11958 2915 0.428592
30015 4685 0.665107
2325 18444 0.0141097
9311 26576 0.0175162
4520 6024 0.318145
21167 17854 0.0108522
8556 14716 0.881886
26806 25108 0.546246
6648 22688 0.00147792
22804 12631 0.98702
17306 8593 0.49594
10279 30282 0.965481
25153 32016 0.670105
14687 9540 0.291732
5369 29337 0.119135
5482 27975 0.834573
23910 24833 0.214729
28696 21253 0.948897
18832 5029 0.0745495
10384 25656 0.193458
11054 14971 0.553194
30829 19017 0.695972
28862 17576 0.562548
22031 3907 0.400823
27921 24806 0.423048
10311 10990 0.296007
32319 29140 0.201897
2715 18567 0.480168
1994 22673 0.101278
5551 2394 0.908414
31360 30611 0.960167
14898 16454 0.252605
17194 30318 0.0986896
8070 11450 0.744873
26803 13214 0.482437
25085 8844 0.359304
10381 14362 0.779393
18575 12952 0.0720307
11284 25420 0.490713
2132 23159 0.876085
18600 27694 0.741112
12984 16321 0.533056
11434 16953 0.600785
2715 17657 0.796483
7643 1594 0.599972
13765 9245 0.767576
28537 31877 0.535256
5367 22256 0.792595
9818 28716 0.551539
27446 8304 0.0138247
3983 21887 0.0472945
28166 11821 0.678986
32635 22812 0.636521
11265 24168 0.856497
32375 16307 0.880285
30997 21642 0.804749
16298 15131 0.394232
20901 3813 0.460505
26985 25845 0.756618
1377 3053 0.9028
25614 22742 0.489491
16935 1568 0.684064
12127 25596 0.929682
18902 30743 0.548453
7493 5066 0.740803
5824 459 0.940793
5221 32647 0.449363
1112 16812 0.454704
5631 13310 0.265146
28631 28708 0.184511
11260 15278 0.640525
390 337 0.164759
23436 22354 0.0447939
22775 16467 0.436942
8905 15353 0.636039
26021 16394 0.429479
21575 4823 0.617658
16573 14173 0.574043
20795 25286 0.830819
8400 18838 0.916175
2968 2657 0.698036
28164 15602 0.0909511
13477 12524 0.833224
18940 19316 0.45498
8197 3006 0.0910756
17887 15303 0.335743
3082 19839 0.398954
17194 30614 0.0268828
5650 2411 0.893017
18313 24557 0.424259
21738 19872 0.761221
13289 841 0.727789
4495 11147 0.111117
8856 17719 0.363411
32632 14908 0.523468
12168 743 0.474145
9425 11245 0.2459
18079 23385 0.35079
10005 26439 0.618563
29078 12170 0.970193
748 16436 0.278932
4826 14814 0.784895
1275 3269 0.475822
20918 313 0.505307
21597 14024 0.316844
7604 11976 0.300441
16832 292 0.606742
31526 854 0.146847
6205 13445 0.751373
3736 52 0.63514
29431 6507 0.833686
10948 14476 0.702317
22709 13692 0.45615
19782 13703 0.788593
18331 1449 0.417737
3195 20369 0.561538
10152 6004 0.0353843
10547 21478 0.710461
9856 8369 0.0787765
23321 23797 0.0860114
23619 13464 0.485428
31321 21759 0.488464
7017 27190 0.626325
28051 14276 0.577702
10908 24062 0.89278
25512 9768 0.281061
28145 18326 0.61888
9879 26581 0.494857
16123 27189 0.501772
14340 9633 0.408732
30040 27513 0.106032
16688 17073 0.934865
26433 25317 0.280331
14297 6366 0.73168
2867 10193 0.7108
6530 1127 0.202421
26355 17616 0.877342
6294 31729 0.418148
740 10478 0.774339
7164 20916 0.862642
26450 8049 0.978348
8884 29327 0.532237
8823 12319 0.661684
14760 20248 0.816267
11818 14757 0.71366
7181 4520 0.268364
4376 16897 0.151453
25581 14222 0.156416
13749 173 0.800039
16534 16288 0.155908
6978 9636 0.497281
12603 9108 0.610429
10154 6156 0.97828
14193 14544 0.0989708
27599 32354 0.745059
27708 23019 0.260333
17954 21385 0.69383
22243 22125 0.209492
4442 11742 0.759988
25367 4764 0.451568
11718 5482 0.492774
31839 7043 0.25263
6436 32156 0.437715
8331 31978 0.995168
27314 24084 0.772275
23070 18059 0.0673916
17439 14060 0.614148
7940 22121 0.212606
28916 2492 0.813442
10274 26789 0.789431
17380 7409 0.138961
11276 17382 0.26412
7649 5840 0.751419
7361 23460 0.655852
1673 26367 0.149837
22524 22681 0.106853
234 6748 0.355795
3082 17372 0.720567
8609 25122 0.0103235
13658 12633 0.330731
12794 7447 0.396797
21747 14887 0.599972
19483 3905 0.1188
28544 9323 0.942017
23631 9610 0.22978
26532 21923 0.749237
10567 31049 0.491313
10884 17877 0.126002
15892 11381 0.122584
14310 17286 0.350304
11779 24940 0.17915
31992 124 0.298634
12942 2491 0.407046
14941 18495 0.545835
2530 20903 0.231134
12258 2543 0.582702
10473 18903 0.628662
10518 24310 0.503523
26572 24762 0.0340637
21613 14849 0.145911
31080 10068 0.146285
29500 46 0.429604
16148 17318 0.0432322
12818 8702 0.570886
9005 21245 0.393924
30365 7652 0.673895
17750 31093 0.591138
24299 10654 0.591891
10359 14518 0.715797
17135 24410 0.401523
4915 22355 0.744611
31493 28396 0.873011
18464 11878 0.625967
4942 19003 0.0644107
27724 26067 0.859251
27148 14685 0.189147
679 9581 0.196926
8565 25711 0.112807
13498 5890 0.133574
7881 5262 0.921037
28164 18035 0.446215
5857 1779 0.470585
10917 13746 0.823552
9732 11697 0.43751
8408 8937 0.0457443
19361 16585 0.000337433
23214 15451 0.914585
4046 6902 0.776912
9663 8929 0.863725
22557 22522 0.935321
15434 9752 0.29151
28283 12210 0.235343
12808 9170 0.473283
14492 27325 0.836675
14635 6311 0.170536
25612 21187 0.128601
24980 11231 0.330704
18144 9163 0.0530018
16950 19033 0.220554
10902 15802 0.924758
24573 28277 0.00811539
16742 8399 0.422781
31845 10314 0.192225
5157 3766 0.2801
18478 9575 0.29886
10232 32060 0.322981
23777 18165 0.706189
31314 13039 0.849217
19704 3457 0.569523
2152 31019 0.53115
27765 32145 0.227007
19569 31569 0.876002
31136 23110 0.38127
13836 22643 0.853476
25878 3712 0.194701
29280 29187 0.300235
9643 1750 0.641737
25331 14391 0.25572
14575 28248 0.804379
26787 4430 0.66359
3806 11106 0.108452
14093 11494 0.57365
17794 20577 0.988765
5955 18352 0.973398
1205 5096 0.000114157
28014 21164 0.521577
2306 17754 0.168463
13317 4364 0.359198
13720 9574 0.0872899
15947 19113 0.0290556
30887 12666 0.954914
15428 8820 0.140604
1734 12517 0.0786841
26379 30533 0.871029
24484 27052 0.388612
12671 2941 0.735847
16258 24598 0.465974
18295 20976 0.279498
26424 6325 0.709434
31721 32256 0.596673
16520 961 0.963202
407 27203 0.04748
14298 18560 0.442418
23243 11277 0.963206
427 3818 0.562548
10276 16682 0.476532
6860 16790 0.00135031
21947 27641 0.643267
15307 1327 0.237963
23299 11350 0.591291
16886 1580 0.965056
10421 25891 0.719248
26176 2491 0.411874
13210 9494 0.458856
15547 12241 0.0142865
19560 14622 0.784299
20556 6666 0.874171
1060 24929 0.696767
700 4487 0.457371
4935 32364 0.69383
30214 7925 0.755401
20594 509 0.445825
9402 4681 0.166616
3551 16038 0.225486
30000 13458 0.0214287
24957 28950 0.928857
16475 1118 0.0714418
16315 6063 0.478097
30133 10476 0.975741
5828 7113 0.310466
12747 3817 0.0599546
24669 27085 0.738203
2884 7551 0.697821
29400 13692 0.833
23605 12568 0.535488
4049 19673 0.105584
19381 28349 0.954185
21331 22886 0.44848
8935 1873 0.977562
18014 23419 0.802009
24350 4170 0.49444
23818 5944 0.207867
14773 14044 0.215353
5723 10284 0.316287
24148 27632 0.11766
26105 22334 0.54836
14240 24651 0.516866
28557 6001 0.685225
652 5261 0.790412
18186 22221 0.474707
2846 29326 0.243713
13942 5094 0.862957
29001 2902 0.379285
6292 7914 0.141935
9569 1767 0.605663
16670 11137 0.914968
1251 20825 0.426359
7034 24624 0.503723
24650 32425 0.671415
30367 11302 0.659857
31454 31112 0.719066
23904 17530 0.0472203
8922 5076 0.0285438
24367 8813 0.963426
614 1482 0.801199
7905 19446 0.814623
2613 11218 0.66694
26734 5297 0.0112501
1641 29007 0.346018
31489 26097 0.531288
7866 22528 0.753988
22515 8272 0.262403
16835 30473 0.510329
31605 13017 0.506164
17480 12808 0.581833
13040 15696 0.857081
22080 30663 0.830212
5995 3103 0.167868
19558 16704 0.453412
19818 138 0.61468
23248 974 0.814674
22246 1979 0.277145
8905 14927 0.85961
5843 22422 0.652377
12514 22545 0.579607
19517 8008 0.796739
11844 25593 0.0565054
26108 6371 0.765682
26888 547 0.560808
13128 20411 0.454755
1624 30537 0.251989
25678 11556 0.705309
5189 7538 0.289737
4248 19262 0.138136
23219 9046 0.588826
25202 2904 0.849976
11768 22369 0.14091
5901 26090 0.34742
29172 13421 0.149204
17024 21547 0.585233
20050 29323 0.404002
3803 14306 0.958828
26312 28715 0.367272
12215 31493 0.123524
6889 17016 0.119986
24503 30695 0.906063
30215 18445 0.659067
18731 14977 0.965452
1069 10501 0.638212
8261 11589 0.385771
9960 16642 0.92449
24039 29678 0.577155
39 29313 0.208336
23430 9445 0.4191
9205 6873 0.747404
31878 22738 0.879593
12821 7410 0.981105
17794 27080 0.474904
14873 22565 0.840292
18662 52 0.476804
25692 16684 0.258563
11932 25608 0.092566
15711 6942 0.149552
24256 8175 0.00285642
3182 5128 0.739681
679 1649 0.64308
21825 5126 0.670778
29645 5123 0.112788
20117 772 0.330087
29325 7643 0.802562
6317 31180 0.992381
8695 27209 0.643385
31032 24088 0.213562
3273 31166 0.0561492
15672 2512 0.366606
6920 6975 0.564777
18242 18812 0.0440949
31578 15873 0.0812582
8335 3974 0.97344
3394 705 0.109351
11038 7832 0.518929
27633 11348 0.879876
10400 2790 0.795571
27321 1607 0.0740993
8155 28482 0.035378
15463 5996 0.521772
9529 21980 0.210835
15333 15067 0.25006
2806 12739 0.345585
28630 21986 0.401607
28500 26422 0.0764832
8211 23388 0.229505
456 22605 0.25087
10803 26970 0.768567
29676 8605 0.135258
13448 23906 0.289918
18284 31824 0.613404
19445 9120 0.332706
28601 27226 0.0966544
12719 22445 0.298818
15222 19407 0.616746
1619 9441 0.360396
4422 2437 0.341981
522 21703 0.46517
24440 16157 0.971986
3193 27411 0.0769337
3166 20818 0.501379
27325 3606 0.193002
13435 31940 0.612836
13030 3515 0.776324
96 13107 0.294925
23019 12299 0.65304
3698 27061 0.0635505
32150 2792 0.74732
2927 12888 0.939992
16368 6310 0.859326
8332 12036 0.66864
18498 18991 0.985346
20700 12181 0.351968
18250 10437 0.533923
32187 181 0.67008
20085 17988 0.549174
13238 23540 0.935141
20314 1846 0.636456
25218 12968 0.220952
8209 10767 0.839558
8923 28164 0.691413
9879 28917 0.276755
17636 28935 0.696357
26969 24182 0.0148996
6456 10551 0.846492
19960 18110 0.630527
32426 23250 0.0368729
9196 20534 0.147803
31794 7853 0.716976
23220 28278 0.569301
30126 22523 0.652377
32478 14108 0.0332545
4864 23561 0.746404
20783 17247 0.528573
2441 28241 0.148796
5408 26776 0.755401
23370 18942 0.340812
18029 1304 0.88709
21871 22419 0.417516
25444 6881 0.789905
17048 28973 0.501496
9348 15210 0.587281
15978 32643 0.704404
2278 17310 0.559757
7733 7310 0.965995
9737 3943 0.103584
4750 13838 0.536453
20121 3060 0.117779
22733 5663 0.723698
12883 29583 0.743509
13152 23594 0.856363
9788 8375 0.508769
10816 24430 0.286398
17242 15786 0.859544
16294 6930 0.914172
12021 14802 0.719573
29589 13813 0.807179
686 20871 0.56614
28929 22093 0.244541
28724 32654 0.563612
22843 9862 0.113904
8694 14255 0.576949
23274 19631 0.223923
25049 26622 0.936002
13495 24871 0.638282
12996 19425 0.65739
11441 3839 0.574976
6681 24997 0.869337
31061 21861 0.189549
29079 30271 0.819958
15927 4838 0.155859
16653 9659 0.785572
1774 22838 0.626212
20498 15305 0.201711
736 17650 0.106017
23504 7323 0.755421
24625 17858 0.834401
10504 14228 0.208719
18289 13782 0.414406
3490 27251 0.17934
2074 17234 0.21603
8640 9357 0.889941
14216 21879 0.923692
26861 10381 0.054675
12987 4250 0.44486
2750 19782 0.33911
17861 25787 0.394049
13320 26743 0.0548191
25511 20914 0.848779
25443 23558 0.883844
1645 22041 0.696234
27004 14782 0.934851
22102 4414 0.283701
787 12975 0.924278
32622 57 0.0689108
32685 12082 0.140496
28945 30099 0.305656
1498 5051 0.275199
21738 12268 0.505893
10162 10743 0.938959
5268 25939 0.317427
4273 21884 0.855436
21529 10372 0.192982
23821 6098 0.277376
19405 7230 0.317954
16012 18880 0.0807069
22761 7459 0.671319
20846 3190 0.125806
4931 1391 0.249817
11022 9654 0.543421
19558 8240 0.767257
6557 8210 0.615073
31518 1542 0.129682
30505 11562 0.187236
11199 9098 0.283873
20948 6494 0.875162
1460 22177 0.870294
17796 24351 0.367961
19876 16240 0.962325
23532 18379 0.300785
22692 29232 0.478669
15312 14706 0.835404
32540 6347 0.548178
16362 1686 0.482645
18448 5612 0.308477
10946 14707 0.939544
11872 492 0.202421
6646 23135 0.224683
32391 14638 0.154382
27918 19900 0.857887
29079 29201 0.496823
14658 8226 0.993483
3360 17181 0.991884
3882 10903 0.796901
1449 2748 0.320029
20130 26246 0.170533
22064 25366 0.778424
14664 12980 0.407275
11532 1857 0.7985
13956 1431 0.678688
3506 8034 0.495885
15531 4503 0.160666
20373 12614 0.0553545
1086 26419 0.505847
11862 30654 0.825446
20539 14764 0.800357
21932 4093 0.410714
14031 12490 0.846193
11693 5988 0.63683
17077 1579 0.189038
27946 18960 0.919538
29010 9441 0.528694
10382 412 0.718735
9294 22656 0.900085
8403 3426 0.66573
13577 21382 0.885509
30968 29433 0.809856
13834 11355 0.812401
1463 14109 0.21441
27723 11134 0.0717021
16863 10022 0.465268
9247 25852 0.695131
15955 13883 0.384783
26160 14069 0.937502
258 7147 0.753673
25021 8822 0.475506
2599 1204 0.747874
13782 2032 0.993017
1288 14648 0.12127
3274 15791 0.959493
16469 32283 0.390943
10544 645 0.531847
19257 6128 0.0561507
8115 1505 0.573593
2007 20174 0.378137
14463 30220 0.541157
1702 1984 0.783324
20975 12081 0.366471
13634 23527 0.721153
4625 11971 0.648755
28213 27987 0.0187872
19838 2217 0.953189
4176 26923 0.10393
29684 31202 0.883109
17464 8448 0.910189
29720 16235 0.624908
31475 20180 0.801375
13895 29297 0.835763
17350 27406 0.164636
31577 8104 0.745382
14700 26661 0.969151
24789 12151 0.793919
6136 2274 0.69651
10341 24281 0.473826
23946 8952 0.0664131
20781 25718 0.916553
30191 9910 0.846567
24060 12568 0.560318
2686 15632 0.0325955
17996 4578 0.128671
32542 30485 0.337145
7555 29202 0.701317
2928 26934 0.054675
14076 14065 0.0150198
4785 14110 0.0536616
9905 2361 0.48904
514 13041 0.627055
28926 18900 0.761248
28139 15880 0.419711
777 15805 0.847249
16203 18242 0.0129341
7422 19047 0.74471
16987 27856 0.499438
23975 26620 0.637549
15985 28887 0.172222
19983 17159 0.990138
23528 30140 0.653588
30419 9139 0.498291
16288 2788 0.251948
3216 17998 0.58013
12892 13959 0.441722
20110 25269 0.722208
15507 26814 0.718095
1316 26383 0.329709
31404 13275 0.43542
25523 5543 0.435158
29614 7398 0.129682
18930 4779 0.666679
330 1778 0.192328
32374 22356 0.769777
26642 22137 0.506061
16123 20968 0.701806
19463 26872 0.701278
32173 31850 0.501874
32681 10247 0.799671
29700 13121 0.830937
21497 6582 0.732739
2790 24698 0.996469
17990 5310 0.690351
11043 26078 0.0231999
14728 2341 0.282926
18467 30966 0.144816
15931 7959 0.195158
9132 30448 0.548649
1076 350 0.326707
16485 2082 0.768518
31752 1809 0.467993
31477 28365 0.524583
27033 8637 0.408405
27122 31762 0.542833
25398 27824 0.76936
1118 11009 0.467206
26206 6589 0.633851
10064 24788 0.932506
5586 2718 0.125661
2764 25870 0.696735
31629 26658 0.0154574
823 1808 0.636312
5094 21385 0.295651
13639 23395 0.799592
10899 3443 0.049221
31657 9294 0.756622
1893 30636 0.42262
8405 6651 0.0995662
2792 2670 0.0362613
6483 3806 0.560473
8165 26974 0.93756
10268 9328 0.435312
10503 30764 0.117599
176 4500 0.0508146
9996 28249 0.599592
8537 28967 0.902329
6562 29454 0.828124
32168 9411 0.636224
28832 6428 0.160892
6199 10780 0.325195
7861 28659 0.480944
9701 28730 0.546813
22738 15036 0.0849333
6110 31149 0.254893
23886 14148 0.788259
20321 27749 0.59795
22193 6154 0.443016
16941 9439 0.216931
15115 22813 0.735607
25448 14252 0.894037
24260 4692 0.346247
20907 6497 0.175639
9827 2455 0.310871
4114 10059 0.749045
13301 3643 0.135976
19021 3399 0.494464
15644 25009 0.114512
14205 26085 0.823533
5657 16092 0.314876
20928 29591 0.32222
19068 30964 0.530839
14339 26543 0.858652
9097 32261 0.769231
28783 28144 0.337949
15250 25191 0.564454
27412 29525 0.00142548
11543 15077 0.230318
2880 9575 0.676638
1240 24163 0.767576
5918 14619 0.661925
171 26640 0.95401
946 12880 0.40633
7095 28669 0.539897
23936 5417 0.911845
20588 23820 0.658031
12170 9755 0.487491
7872 24963 0.321001
23048 11700 0.464231
5418 29240 0.458224
13673 7477 0.962606
25467 6833 0.0270691
25817 27773 0.0209521
7078 19274 0.898757
20531 20541 0.603862
25504 1805 0.269371
18607 13863 0.182988
11239 25650 0.519881
9893 30159 0.0622779
22395 16470 0.188619
23136 28601 0.431528
18320 15577 0.934586
25525 30193 0.672928
6043 8315 0.358672
18668 6551 0.293081
4853 30662 0.383591
25745 31900 0.391537
18334 16770 0.932584
8988 6488 0.160316
20666 16350 0.701736
7692 5886 0.624363
30779 27579 0.514194
23442 24078 0.104677
18428 1534 0.965452
23284 15370 0.596501
13637 24097 0.69918
12246 7799 0.0644728
6167 6532 0.633596
9075 21768 0.627783
23848 22858 0.0753067
27010 16899 0.246635
14822 17470 0.635923
16081 6363 0.154951
23592 14755 0.885881
25235 5883 0.613053
10465 11831 0.112264
32512 18959 0.483584
6651 18372 0.388024
4379 32007 0.756004
18688 12832 0.66317
26631 10513 0.744866
32607 8404 0.402592
15301 4590 0.38959
6598 9201 0.568377
4993 3550 0.27608
22952 6439 0.875162
18722 28374 0.391702
654 18688 0.799412
10657 3578 0.969902
9060 23746 0.27629
10642 8360 0.217425
3527 2321 0.288243
16013 2859 0.57176
7986 353 0.493555
31078 10837 0.722737
13248 3373 0.411534
28877 957 0.899102
32036 10506 0.436713
19943 3887 0.931456
18195 4761 0.434563
28943 2581 0.956287
1345 23038 0.0258389
16522 14740 0.618054
32422 14435 0.752169
32002 9412 0.212128
19093 29325 0.116721
9184 24081 0.982632
4572 24663 0.75072
24952 29221 0.919376
15508 2518 0.407046
17122 32197 0.392208
30282 29608 0.368927
10309 10980 0.955929
28788 15134 0.258518
3021 17055 0.452645
14724 27048 0.51048
3677 27553 0.965761
32395 25121 0.309153
26520 5221 0.651706
26022 29056 0.594317
6723 13250 0.935506
29405 9244 0.791269
17219 18106 0.765519
17134 5100 0.740382
20238 3692 0.576539
17152 18322 0.112137
12277 32669 0.132985
32616 30119 0.701334
11154 28051 0.467862
26690 13747 0.828655
26540 24189 0.022955
29367 18950 0.149081
24704 24513 0.846567
5037 9885 0.77628
8120 25792 0.400068
5622 12444 0.260474
21301 21206 0.126944
16612 14332 0.812819
236 30632 0.379842
19755 10506 0.663445
23772 32040 0.0296993
24337 25944 0.0723995
3215 4569 0.579298
13669 5023 0.794452
13093 13591 0.581206
22133 10714 0.244574
9478 14708 0.928857
25064 10447 0.0662617
17714 21915 0.700907
17537 23175 0.988812
27101 13380 0.930248
29312 16178 0.815962
26024 957 0.939796
31456 29939 0.0426316
6062 3626 0.150822
31737 2575 0.38056
16888 5428 0.688455
4976 11876 0.339959
13305 1619 0.734571
5793 8945 0.422282
3273 20811 0.149799
3733 16035 0.619441
12370 19811 0.335743
6676 31442 0.265123
2794 5729 0.00511992
9500 22639 0.110994
19330 15460 0.721153
11455 16765 0.810064
2595 175 0.534565
15477 4737 0.218322
26577 12546 0.226368
1754 19049 0.00368331
12343 26546 0.419247
14212 7223 0.147473
28644 26928 0.850818
23286 17824 0.328953
2591 2672 0.0898162
9835 18217 0.586542
15754 13141 0.924521
29979 19374 0.310446
10469 20968 0.830212
16635 31401 0.466606
21468 2000 0.0826558
18832 6321 0.837133
140 17124 0.400623
547 17637 0.270078
1875 19370 0.195321
41 27252 0.0866327
21468 6642 0.325271
22012 5257 0.12984
16022 22122 0.399932
20181 4583 0.658643
28388 7034 0.0909263
26609 32318 0.253248
4270 11056 0.513595
16256 30243 0.156956
3993 26911 0.734846
31734 23920 0.185827
27673 17884 0.54064
25286 21019 0.337841
29221 21314 0.0302955
31485 22001 0.10789
11892 7917 0.933997
30166 11720 0.783364
5027 15397 0.631076
31926 6414 0.413375
19258 22079 0.116818
16497 14096 0.481241
23708 4572 0.949362
1503 31334 0.0223998
13132 8490 0.888332
24057 1553 0.130709
18224 8835 0.607714
13851 16995 0.160462
20445 10890 0.0529541
13418 12153 0.0528067
16846 6448 0.294342
3548 17447 0.413963
29216 9827 0.220758
9704 14279 0.138761
24846 17296 0.951438
12303 3892 0.212194
31488 20487 0.479055
3736 10888 0.352779
20735 1135 0.918439
7192 30247 0.768616
5130 4816 0.77908
32628 1636 0.15085
6673 25362 0.522121
15665 18658 0.269673
1659 1449 0.502167
7027 1941 0.374666
18499 10928 0.56577
30472 11260 0.491833
7912 27919 0.0432671
24858 29736 0.688455
290 17378 0.364379
7865 7881 0.954496
1241 19990 0.440477
5575 15138 0.412684
10798 16090 0.443105
27984 1833 0.42998
11400 4632 0.918654
23827 5930 0.293027
20691 22508 0.373969
9831 15855 0.245635
30494 19750 0.10633
2684 24110 0.327429
11213 8141 0.955622
10545 15721 0.41658
5508 6603 0.702228
14886 9855 0.408732
26083 5914 0.114416
5984 1335 0.257865
29771 20109 0.4385
1670 16303 0.182132
25302 16832 0.415475
3169 18121 0.447696
13323 10700 0.0550081
32545 13047 0.96424
24514 13191 0.525
17880 23561 0.854801
18614 16576 0.340006
6131 14209 0.394037
4942 24123 0.220952
32703 14934 0.293401
25506 4786 0.014771
17724 17634 0.617619
26065 30716 0.216698
18206 26173 0.833763
12726 12574 0.742934
3004 29882 0.0748797
21073 18079 0.872782
899 10255 0.452079
26288 15219 0.142312
22078 6272 0.105616
24755 7475 0.305756
27573 18042 0.737068
20171 20900 0.0137508
18518 27128 0.997977
31859 18393 0.0356516
3278 5650 0.0542927
1948 53 0.975978
4136 11182 0.186569
14051 31630 0.281354
2067 3522 0.00838507
17395 7042 0.904549
30670 30471 0.429294
23971 30609 0.334379
15433 21269 0.501963
8106 21260 0.517666
8683 19276 0.191155
27105 18870 0.275818
22268 21447 0.374294
10623 16840 0.503218
11911 2008 0.798386
26376 9442 0.738508
31790 4241 0.8422
14349 16750 0.849782
52 23680 0.553326
15194 28992 0.466812
6965 12705 0.838626
8457 20584 0.954062
28735 11060 0.915596
18220 2078 0.426693
23248 29882 0.388104
29610 14572 0.933648
4215 25423 0.563668
20434 20177 0.788327
25856 19589 0.122987
17460 5066 0.97837
20501 30199 0.99986
14809 17805 0.0341324
9927 17934 0.277225
17539 27327 0.565824
231 11486 0.191404
5490 21798 0.59889
5199 18749 0.672508
10636 13902 0.59328
18818 2285 0.341348
4897 27846 0.408732
16922 16470 5.52055e-05
25942 910 0.28899
20870 18562 0.930648
25733 18149 0.642639
29476 23351 0.669116
24631 22115 0.487158
1452 28517 0.0651115
12371 7437 0.25975
15835 31509 0.751566
10476 13889 0.739345
19048 26866 0.721926
31090 5239 0.21385
30564 24489 0.497352
20557 28264 0.452005
24584 18815 0.706798
5227 6401 0.848159
7746 30937 0.348952
28572 17932 0.512121
21630 13435 0.62857
31966 18069 0.334059
21883 28441 0.862461
22175 19608 0.707143
2615 32746 0.503381
24756 14760 0.389361
14268 1015 0.561342
16052 31350 0.644126
17653 7349 0.917587
15803 10955 0.170811
30183 10353 0.999434
3943 7674 0.447579
7083 849 0.426047
20388 10021 0.0557499
24427 26079 0.222146
10430 24215 0.109174
2897 32420 0.0458125
21006 32668 0.29103
30696 3137 0.788557
4042 30885 0.146428
32316 2362 0.53552
19232 2558 0.454157
132 17452 0.487826
15527 28761 0.589395
23467 15083 0.731795
32130 30205 0.455164
9048 24361 0.0832414
560 6531 0.454641
25869 18680 0.900694
11111 24799 0.133742
11513 6713 0.969
6040 2835 0.447357
5096 32040 0.474574
17238 18439 0.482398
14143 25771 0.400288
11616 30314 0.575452
3621 2676 0.0986989
12856 5185 0.223811
6054 31616 0.900932
32184 9623 0.529119
20172 16648 0.614997
25491 19860 0.736773
3769 2671 0.523366
1566 8241 0.0747001
24339 22484 0.669672
12062 15442 0.244468
13529 10681 0.756816
8989 23611 0.774837
464 32752 0.542799
30412 14738 0.425792
6137 28493 0.220083
15596 10418 0.962606
6651 10814 0.219018
19120 17443 0.493823
22685 6828 0.648934
28395 28473 0.534189
5669 23334 0.935141
4346 31141 0.17817
15777 29526 0.486686
9100 17711 0.584469
29689 24674 0.639094
22876 7315 0.594268
3683 27563 0.837801
14635 12405 0.0839713
12535 11149 0.759054
6775 31387 0.103853
15136 5039 0.717036
22959 722 0.689716
16557 8474 0.839929
3990 8569 0.849145
440 20044 0.00913659
23194 5453 0.935294
2677 27447 0.26611
28480 19462 0.701526
13286 7909 0.195818
24825 5636 0.367364
27435 21877 0.50236
776 2694 0.590449
24792 32447 0.0607565
6460 12748 0.0238278
14712 24286 0.282362
14807 15169 0.511375
8134 23638 0.0371586
31694 8234 0.475714
8305 24483 0.523513
17552 14346 0.799818
30638 11251 0.617201
28036 32647 0.0416567
27043 19140 0.525867
32059 10978 0.208727
25114 6725 0.894862
2855 8324 0.583963
9517 5341 0.973441
5450 17115 0.990284
10746 25412 0.08255
30511 4315 0.0355673
9187 8486 0.0658099
13558 2172 0.806208
29891 12624 0.110681
30420 13247 0.886212
19690 4153 0.484254
7032 31052 0.509152
29512 1104 0.806568
11391 13771 0.939615
10445 4524 0.564446
18711 1279 0.67591
25199 26445 0.0648018
1518 10195 0.100828
7241 5278 0.363487
10600 27973 0.114587
13833 28544 0.960561
21305 14080 0.237633
22450 28219 0.110881
20313 17485 0.540455
31657 8174 0.6784
20718 6766 0.0524884
10859 19937 0.718213
29178 20894 0.290259
19517 20603 0.66871
14591 2281 0.281183
722 15040 0.55646
11276 15462 0.311893
26366 7471 0.852763
22514 15924 0.881621
11813 23683 0.157713
2092 27455 0.144064
25085 2503 0.389744
25622 19186 0.0751103
17205 21620 0.658692
4606 16500 0.226371
25468 24397 0.721315
13644 32417 0.0987632
25808 7143 0.927894
15871 18727 0.292315
6101 918 0.162373
28842 10808 0.976193
20056 3488 0.715379
1377 11383 0.371542
8539 16728 0.13255
30532 28197 0.97955
12563 27437 0.183371
25615 5399 0.564731
32395 22465 0.0576737
11171 19641 0.296866
3148 15849 0.425792
7403 3808 0.617405
7099 4258 0.66543
31996 7800 0.994466
13373 543 0.359545
17029 11700 0.500511
29126 26012 0.249869
20868 18929 0.0447992
21085 19642 0.933743
24531 7733 0.888167
11577 26964 0.749045
28890 5435 0.690153
19779 21528 0.523861
26926 21133 0.697462
10040 26659 0.565511
20001 14777 0.567591
10533 16695 0.0409384
24584 15791 0.169231
10781 19943 0.783989
24620 20264 0.661941
11244 29204 0.727935
27692 16560 0.134331
31008 2029 0.421085
24536 25773 0.718555
2344 9362 0.65761
29967 4853 0.0420545
32567 32110 0.605552
11975 28552 0.478225
14404 30215 0.986583
22690 30037 0.0166282
32505 2237 0.597136
7096 22398 0.418298
2727 18075 0.342932
29533 23106 0.7656
511 29504 0.162155
28309 32347 0.571568
7821 13376 0.826751
24428 13138 0.819486
12228 27225 0.714385
28556 22667 0.776015
5137 31759 0.40133
9475 26922 0.221293
9713 3429 0.275233
17908 5637 0.862234
10558 4706 0.542753
19538 13774 0.308204
20084 11739 0.792846
7297 28950 0.381511
22681 3836 0.241569
12815 1952 0.468227
11598 29919 0.354213
20006 2109 0.603519
22372 24572 0.926981
3919 6008 0.747505
20265 27556 0.440483
20163 20736 0.524676
28322 22018 0.204944
13071 3791 0.797155
10963 2557 0.630159
9724 10851 0.46376
21800 6771 0.0708756
267 29480 0.876085
16762 7813 0.892862
19026 20046 0.292419
18050 732 0.839747
20322 8319 0.138277
31380 7229 0.19936
29831 16780 0.9002
17320 15947 0.930429
17385 21004 0.408427
3863 2826 0.891922
15844 23132 0.0228642
12955 20138 0.393616
27283 25770 0.0898162
25840 18323 0.0840372
1483 17998 0.416624
17242 14366 0.967527
14273 30672 0.628356
24195 19171 0.121627
31585 970 0.664503
16539 23964 0.933795
11719 32448 0.876944
29720 19770 0.152382
11157 12806 0.141094
12280 20421 0.0991495
3304 12893 0.147086
25974 903 0.110957
4092 25339 0.43869
14110 1936 0.343054
26161 2998 0.163552
24983 6763 0.0800187
28114 1355 0.589208
3974 8077 0.965566
25231 30619 0.492908
23978 20981 0.709878
10554 9995 0.262629
15598 3501 0.772972
19878 20097 0.312627
29253 2233 0.157564
14259 14641 0.869009
15289 32261 0.742348
688 28574 0.552105
28219 24580 0.378694
14874 32580 0.0623097
21178 13495 0.150949
29698 6581 0.613149
19536 2029 0.959867
28250 14867 0.589664
7753 17682 0.293276
12586 22188 0.374373
6551 30835 0.986038
18920 7355 0.546402
18011 2332 0.678807
2315 17066 0.68673
3816 4163 0.0869074
15062 5022 0.265687
30862 13999 0.643859
3217 5702 0.681821
13021 20344 0.752717
11813 30011 0.646552
29173 5072 0.737416
13637 20996 0.889992
26830 15023 0.317175
6253 32044 0.500285
20397 26240 0.129717
29348 21149 0.182388
16966 6835 0.00292549
21941 16390 0.792243
14575 24120 0.544193
19177 29882 0.25009
22402 30064 0.866466
2065 3953 0.630569
17581 22053 0.958213
11957 23286 0.259321
16740 30714 0.704554
12525 4174 0.458891
526 23637 0.826255
16265 22114 0.621006
17238 14350 0.222944
6328 13606 0.986755
20866 15868 0.419214
827 75 0.613519
18786 14953 0.230134
14458 13360 0.51743
13354 12524 0.664273
13038 3793 0.229266
7800 26224 0.212287
12292 29569 0.644478
10327 28020 0.979229
27481 1395 0.761504
16011 6107 0.355781
1981 1237 0.278932
6239 878 0.0931889
7580 27663 0.0204452
14501 29466 0.903811
13536 25558 0.00917519
3587 17321 0.626406
32577 7535 0.59077
20438 24390 0.929081
29836 3635 0.570625
11833 1861 0.881546
8824 30414 0.0406727
11867 28267 0.188533
11076 29764 0.164443
10566 15234 0.322574
25932 20715 0.481304
29731 6229 0.72415
28854 13998 0.139672
26509 19322 0.75174
8831 19043 0.255396
17876 30671 0.962682
16307 24437 0.972106
1815 28470 0.252256
21300 32266 0.665257
11775 15377 0.756939
3543 10461 0.832908
19123 5965 0.155908
17781 8330 0.0398431
23850 28669 0.166045
19002 8085 0.00204651
862 27516 0.160316
13009 9961 0.013915
1795 23783 0.900297
11836 30509 0.35643
6615 26277 0.596641
26642 858 0.0639377
3993 8097 0.622412
6638 23815 0.226007
29999 15620 0.662496
25524 14192 0.657199
9133 17252 0.802526
15423 25770 0.81104
27739 23856 0.979517
1909 10228 0.609513
6565 1643 0.740869
27788 19927 0.692865
19908 30168 0.969901
5907 27107 0.609432
20777 25309 0.00317491
9651 31125 0.0365423
14396 20189 0.825304
30041 13908 0.705069
9040 28243 0.329616
2026 6755 0.280528
16536 15142 0.105773
7106 22843 0.69682
10546 2511 0.539762
20789 30480 0.493186
16034 23874 0.611047
9189 30934 0.81631
14500 7293 0.888332
12873 20729 0.824716
9888 13360 0.672674
11305 21572 0.565868
20400 13713 0.470215
16166 24717 0.892244
19095 4293 0.329046
3128 17310 0.592921
13895 30952 0.347451
24164 797 0.235841
292 25972 0.0932844
1610 17488 0.0134284
16617 29767 0.655767
18500 31418 0.869205
21878 14852 0.331861
30420 13812 0.912696
12407 23766 0.453
20344 20770 0.639589
8773 22052 0.718211
29052 29827 0.297828
14654 32544 0.712663
27698 21485 0.565846
30519 19105 0.905508
31976 27959 0.963157
5901 27059 0.714916
18905 18850 0.607928
12531 12670 0.847668
13165 17542 0.76427
16686 15067 0.0712326
6664 32118 0.0786212
22577 22487 0.693298
24725 12794 0.113988
29351 6450 0.0372591
32455 11154 0.900372
31717 28971 0.579914
9384 9709 0.278024
19016 15724 0.512428
32343 25143 0.412275
30527 23569 0.491982
22835 8717 0.363184
25389 10182 0.258838
16611 21461 0.448939
12625 17601 0.842987
19572 12560 0.346341
2027 21143 0.661564
18474 14886 0.151453
7902 4448 0.889739
8059 18411 0.430565
598 17509 0.315844
12089 16258 0.334845
21476 2810 0.160066
4763 24283 0.136544
24638 4586 0.818927
7084 10689 0.549459
19516 4143 0.0102525
22687 17761 0.741711
18459 26013 0.849481
14704 29923 0.935596
28599 19273 0.859243
13879 13275 0.595844
20337 6947 0.289346
1734 13199 0.732727
31412 11573 0.603555
22080 1703 0.761459
8390 10568 0.481631
20776 1236 0.834279
23292 17127 0.627549
16148 7300 0.214968
32735 9806 0.0422079
18548 20611 0.177588
16548 15815 0.325075
12137 29953 0.831133
29435 6553 0.428663
27361 20080 0.162188
32702 10474 0.301734
30855 29579 0.166027
7836 3853 0.357985
14363 22622 0.455377
2018 26095 0.807537
9006 4328 0.269408
28925 30529 0.617436
10826 22725 0.192316
31195 384 0.570903
29744 23462 0.922462
2842 28110 0.0429517
23517 5156 0.451135
24888 5566 0.536767
24357 3030 0.667069
31215 11503 0.356851
5382 11505 0.882792
6210 10732 0.56879
16684 10794 0.934423
4860 28136 0.823404
5938 27919 0.568286
23841 11801 0.472819
1105 32196 0.0730223
26802 2206 0.25412
16580 29866 0.187986
24900 13259 0.0828652
24373 168 0.551045
2503 32032 0.209267
12207 28839 0.553853
20311 21550 0.561205
12727 21542 0.70085
31724 14092 0.224448
20913 13829 0.884825
989 15178 0.958335
22984 15065 0.441385
28978 8488 0.197153
24445 2827 0.854552
27138 3407 0.590208
7580 23979 0.851321
25254 28612 0.00802258
14591 1502 0.616774
17753 22467 0.497953
13883 15000 0.682614
27052 11583 0.0805439
31946 15164 0.614326
22877 882 0.197216
19540 6426 0.886676
25232 23377 0.983689
2701 9988 0.874572
4773 7421 0.74685
4610 19616 0.831036
1589 736 0.387097
22307 5912 0.765797
16545 30166 0.334845
17448 5946 0.110241
21966 12572 0.89062
2777 8523 0.699555
15150 20505 0.435265
6379 788 0.529
1374 23919 0.376176
13048 19772 0.75568
12392 3856 0.877502
27526 16477 0.580461
7917 13465 0.36258
15904 12427 0.573065
23417 20940 0.194744
11618 32613 0.200955
10636 1383 0.104068
9637 22437 0.25578
7404 24627 0.535135
19196 30330 0.904684
21391 26710 0.899748
24046 4770 0.842115
14296 10439 0.401742
6319 28704 0.535135
12365 5748 0.781235
7929 21903 0.794921
11142 26678 0.122111
9822 29125 0.76454
6598 3105 0.180302
16357 12118 0.618136
19228 10462 0.985266
29868 20164 0.0475089
13292 22766 0.975044
22121 8678 0.10774
24553 22229 0.439544
17881 15469 0.417516
4392 27852 0.814263
16475 9739 0.876904
13229 12096 0.829602
11831 11663 0.880329
30436 23460 0.487441
25697 779 0.596618
10614 521 0.493661
10099 25968 0.188533
3534 20894 0.757639
21357 13513 0.122946
29933 28977 0.0183711
20545 16094 0.367974
29138 10690 0.883328
24783 21283 0.711183
10305 9779 0.472831
17591 25481 0.462949
21334 14311 0.157187
8597 10187 0.660643
25861 5851 0.259174
32340 8323 0.157122
1572 12628 0.306934
808 15025 0.788739
8666 28110 0.84012
19103 8536 0.636521
1190 11221 0.486324
9385 19199 0.440296
8772 13448 0.152627
26011 11524 0.932987
24093 21376 0.174282
25054 10119 0.362713
659 6181 0.522898
956 11748 0.717511
24930 30750 0.66769
22368 30717 0.305677
30833 10644 0.789905
4182 30811 0.586362
31200 26391 0.785885
32076 26667 0.197082
17845 25791 0.484989
9635 31731 0.709275
29967 13710 0.810307
1507 2508 0.508428
7330 19208 0.723661
27917 24545 0.437945
10553 14939 0.787583
13606 15172 0.850364
26844 18503 0.297828
4416 313 0.357727
22497 28264 0.690187
29345 10163 0.977965
15110 3858 0.0362613
32592 15843 0.0753067
5280 10256 0.414176
14395 3743 0.674794
30297 15648 0.062136
28755 20645 0.85397
2787 13863 0.329617
20506 29516 0.129016
3284 7959 0.312089
7457 19426 0.67591
21734 21279 0.436926
30628 19765 0.589856
20530 1049 0.685753
3840 16940 0.218974
13300 30029 0.739849
4295 3594 0.447942
16719 10412 0.317251
13605 1433 0.299287
30975 17063 0.186055
28549 2305 0.3536
12651 17738 0.00528697
2492 11921 0.0859889
5197 24935 0.589913
9874 5800 0.162409
966 6974 0.978688
26569 20588 0.0550897
16700 24605 0.366252
30748 21428 0.888332
20006 5813 0.542018
11517 6617 0.279367
30960 13363 0.11244
27099 8496 0.102543
25545 1033 0.311473
22909 6847 0.107405
26547 30055 0.316966
20480 5602 0.576758
7436 2312 0.547833
27606 16236 0.386804
11264 7605 0.547666
28935 7836 0.505438
30949 31260 0.685914
14950 5875 0.619098
16968 3821 0.505359
18095 2427 0.904859
18824 28122 0.414406
363 32154 0.305861
29138 6789 0.95592
6492 21239 0.674417
23089 14467 0.0477981
12668 9046 0.0745217
26135 580 0.332833
16977 20571 0.19948
32296 872 0.488659
5888 5112 0.889353
27451 28652 0.409525
30899 2945 0.805972
21656 10278 0.585025
14969 16867 0.901104
907 32447 0.667432
7426 29225 0.893954
26680 15604 0.737423
12650 9246 0.364258
15246 156 0.128179
28731 7845 0.774212
29681 12735 0.210867
25628 21985 0.789209
10649 23724 0.382116
2468 32616 0.703601
4982 12413 0.523532
21235 13364 0.232599
14465 5226 0.122862
19589 6381 0.736181
23664 15588 0.701526
7730 29730 0.109558
16597 31966 0.126455
19383 30491 0.0292452
3304 23504 0.52823
18456 15223 0.243451
4916 20186 0.0315436
17164 21994 0.136947
28266 596 0.228296
15895 24752 0.720021
8802 23772 0.740382
21170 12518 0.743136
23088 24695 0.627373
8759 20090 0.00241613
3938 1300 0.0477154
24815 25637 0.299096
6813 10057 0.297121
4971 12826 0.120712
9633 21895 0.415459
10847 7860 0.94981
8241 21364 0.755429
27781 11349 0.171173
4251 10254 0.895787
13087 18245 0.522024
29158 5762 0.304716
18413 9961 0.806558
7204 32417 0.217419
27298 10518 0.922626
26073 28512 0.771938
1018 31521 0.626306
5320 28016 0.290605
21132 24166 0.687331
26398 20876 0.404432
11085 11137 0.963802
16069 29128 0.620409
2955 18222 0.126812
1416 14789 0.120168
5395 4858 0.207172
23142 16548 0.306321
15713 13532 0.211331
14745 23969 0.151312
24802 11341 0.60779
988 27736 0.153616
32688 24181 0.86544
13741 2283 0.702143
29042 25635 0.0350849
18777 27197 0.594641
22687 7669 0.737613
22377 15730 0.7549
809 1807 0.271616
1565 14076 0.0215332
25421 25259 0.58433
12776 25846 0.769271
17632 24491 0.0501994
19026 22652 0.877319
16414 32599 0.857732
11145 9833 0.786135
15035 12521 0.386703
29208 28860 0.186401
24483 13166 0.0521188
28788 18769 0.53909
16673 15411 0.895356
11675 8790 0.789847
20962 21340 0.623599
7115 3732 0.609276
4798 30074 0.251356
59 32425 0.0319875
7546 5556 0.388357
28440 5029 0.147508
20957 2817 0.475109
30958 19721 0.953849
30606 8769 0.125953
17378 4215 0.590087
2070 16624 0.592643
21061 9635 0.926597
520 24363 0.681004
6866 14033 0.157376
18742 31550 0.0124566
9441 19575 0.141152
3805 23331 0.173239
15205 27225 0.663396
30001 25416 0.60669
7771 132 0.233216
29484 14341 0.561945
11331 27147 0.0807069
23018 7596 0.521731
31880 17546 0.165965
8357 6541 0.512686
26731 22582 0.0164877
15674 8358 0.698214
28047 23142 0.253857
16616 11044 0.908591
21246 32514 0.295857
29976 25595 0.624526
26638 30452 0.940044
28180 22648 0.883336
11993 2120 0.294594
9027 1569 0.768073
31119 30919 0.740424
22432 23998 0.0778054
27499 12979 0.452053
3730 638 0.70166
4390 20100 0.313857
21751 13498 0.189321
4638 22230 0.229812
937 11587 0.913812
32192 18452 0.429114
7908 2589 0.462639
1853 10557 0.905477
31107 29740 0.191504
230 23137 0.763337
11340 4030 0.635296
29714 16968 0.526534
7379 25250 0.397757
27968 26335 0.900498
17577 9461 0.87099
25308 26740 0.353191
4067 32661 0.705765
4030 4135 0.428334
30037 3578 0.384195
3595 30064 0.549707
29051 11080 0.452813
29601 16007 0.958828
2031 27455 0.0591496
26080 18827 0.136461
9377 19879 0.125829
6380 14431 0.705754
23617 5816 0.546003
4148 9426 0.460827
25819 27663 0.568456
25038 12856 0.0693761
31751 11074 0.273361
30046 29645 0.916502
30026 24398 0.926389
28677 15445 0.404406
28193 12170 0.170426
7677 17075 0.434106
27771 23593 0.581629
28735 5178 0.0291634
24145 8367 0.934865
18635 29339 0.696875
2448 15612 0.79119
12004 3696 0.821512
14484 32624 0.0641058
31934 13356 0.218791
20364 394 0.624363
31185 3620 0.63915
29296 29669 0.690303
9051 16596 0.148642
13208 21451 0.957907
14616 16806 0.770708
1836 14760 0.977087
17277 20543 0.626684
16984 7078 0.0199215
18424 23276 0.464503
18050 26600 0.110786
15219 30706 0.59331
16948 19180 0.0173515
19481 23909 0.575718
32587 11062 0.831842
22396 4394 0.751566
22969 4346 0.799818
9382 8755 0.710272
9239 21929 0.522524
23109 19823 0.557572
10857 22333 0.0133483
24204 17816 0.0362755
6614 15468 0.574809
29160 17324 0.471758
12935 23146 0.866508
23913 30715 0.954037
26354 5606 0.224103
9091 31819 0.207589
14316 27199 0.153128
11795 17659 0.521947
18759 26049 0.598769
19753 16145 0.778277
18 8808 0.43896
14369 313 0.623031
16404 17194 0.505182
23366 25657 0.89538
29870 21217 0.77726
7030 21556 0.651986
2574 321 0.452696
14088 25600 0.250576
6159 1448 0.872089
20614 31243 0.705765
18864 16848 0.533923
21953 23894 0.768368
20757 17146 0.261898
4670 13819 0.091888
24181 26923 0.63915
27817 16012 0.832922
15788 24363 0.13739
29303 22660 0.755572
17130 5229 0.106569
27050 8666 0.542528
585 151 0.344454
12023 19560 0.260935
9875 4126 0.469136
15077 11001 0.94975
9985 17195 0.674055
14259 23672 0.828891
18671 20511 0.831599
12629 8856 0.243978
16676 13969 0.117858
22116 13671 0.212653
28070 14336 0.913545
5041 21152 0.0256362
1739 23377 0.0853395
8337 32088 0.325718
10755 17097 0.552489
7651 14605 0.0135015
29523 24690 0.424453
29444 32490 0.883658
11356 20146 0.259857
27096 30741 0.902329
17801 2461 0.815046
8638 14268 0.566905
13261 18048 0.449608
28392 17733 0.209217
12866 78 0.953085
24962 12787 0.493655
13062 20998 0.130999
27588 28421 0.0934717
14816 15566 0.396545
4992 15053 0.00386979
27857 29963 0.826765
7200 28577 0.613519
11867 23751 0.316281
7230 6875 0.296439
13465 16364 0.453514
11732 8866 0.0952679
14987 4554 0.427192
26478 23679 0.0479152
30327 31190 0.00377924
17163 7494 0.166279
19154 11064 0.612709
31063 18448 0.0502725
3187 25422 0.605708
31330 9304 0.731518
7653 5330 0.110994
31006 48 0.779281
12402 8696 0.599213
32069 10651 0.79057
30958 19746 0.0585072
27025 10385 0.639094
15664 11136 0.291246
17077 3857 0.90994
5619 28347 0.790636
20178 10706 0.776764
3681 28274 0.387028
31458 6622 0.569634
6513 12125 0.0500616
28526 9396 0.0209419
477 24395 0.742041
7186 16232 0.530242
13761 30422 0.0958792
17655 14752 0.0807199
14086 19542 0.41624
13734 14524 0.838626
21899 8383 0.245361
29706 10998 0.41853
32202 22535 0.178263
19876 12345 0.980316
21598 30017 0.399795
26116 5170 0.0285316
15638 27561 0.857081
1245 22325 0.852666
16850 21459 0.551327
20588 26465 0.764699
6019 12012 0.028315
7090 8384 0.798354
8761 20391 0.575583
21460 27353 0.399706
25379 1707 0.554739
18254 20188 0.358238
13081 9973 0.758152
2409 16190 0.785042
1093 18327 0.197378
8388 13858 0.927012
20590 23499 0.624006
26065 32580 0.495983
18751 17636 0.91775
28100 17564 0.674654
15960 27269 0.192661
20705 22217 0.832324
12302 19859 0.670203
30161 30165 0.311921
30929 24594 0.861719
20201 4648 0.495803
25949 7063 0.0164154
13924 30339 0.946328
956 16715 0.98775
12606 16459 0.138291
26817 18785 0.279256
24329 15891 0.518198
12434 18122 0.310955
2758 15519 0.724926
1152 31150 0.164448
4496 7603 0.932819
17281 25874 0.408394
426 13524 0.324737
21183 30962 0.986624
20892 29026 0.69789
17891 10138 0.609464
28790 20707 0.28962
16963 17647 0.0727079
15684 21578 0.879347
12662 6526 0.579914
32088 9716 0.949087
4457 8320 0.325928
20297 17362 0.768812
28639 4346 0.224779
6393 26202 0.0327923
14257 23789 0.593984
23094 32072 0.946275
29006 15620 0.158726
16422 29292 0.0420754
10965 3801 0.284674
16250 15958 0.903446
4555 15123 0.838674
15409 6288 0.642714
30953 30287 0.940515
7404 18834 0.0659135
4823 26260 0.120489
24456 19767 0.0568241
14608 13359 0.792243
28912 418 0.266407
15739 18482 0.924468
24953 21897 0.56539
8454 31788 0.876543
13522 18008 0.640325
13033 17343 0.870299
7707 2837 0.887525
9948 12696 0.453514
865 13409 0.316278
19347 4210 0.501566
12330 8824 0.58209
25545 3842 0.921037
22793 28353 0.792893
10562 12527 0.564906
10580 17850 0.269966
6223 24992 0.734604
13211 24928 0.259665
18026 14990 0.209433
20333 29863 0.0662112
26545 12959 0.0617672
25883 16311 0.942925
25380 22133 0.0991302
4826 10262 0.306321
16589 20202 0.528074
16903 14963 0.881553
18726 15733 0.620492
24284 6975 0.694695
19141 20121 0.25873
11807 1740 0.309352
19777 18783 0.439831
32603 14494 0.956077
8872 11062 0.826625
593 29514 0.438823
27883 8532 0.0102808
7104 21241 0.250541
20561 27897 0.311494
11264 15238 0.522606
18978 26513 0.0968792
27232 20963 0.66361
29511 8983 0.742041
6903 21526 0.9732
31047 15708 0.848177
30314 7140 0.28367
29873 1736 0.440346
9722 9306 0.0870835
9956 15773 0.887663
32652 7917 0.517359
14067 26540 0.892447
16977 25904 0.173374
14596 19493 0.562801
8777 19119 0.366601
10256 7020 0.791381
20106 24181 0.976447
17509 20410 0.841248
7854 8850 0.18675
32417 25505 0.519135
28569 3751 0.956568
29678 32377 0.563807
14327 10502 0.0380329
19353 11895 0.699401
7672 4131 0.800677
30036 29180 0.414775
22310 26003 0.437326
9325 24772 0.858031
24437 31714 0.407085
7342 30726 0.394553
19890 24887 0.372458
24704 25328 0.301309
5924 20165 0.524676
27457 30193 0.244897
782 29083 0.456224
2691 14782 0.661197
31489 6782 0.382822
23345 24337 0.694473
15500 7265 0.0713878
3693 29181 0.291213
6801 9395 0.00998158
17130 29814 0.971986
32140 30181 0.468286
10707 17470 0.451589
8359 19379 0.164192
14540 16214 0.899748
4869 10434 0.741263
26410 24393 0.702133
12367 31965 0.941148
31308 30596 0.716345
25135 345 0.850661
27541 3893 0.538087
16540 17316 0.360777
11463 20863 0.665494
31597 13556 0.950024
3757 27457 0.43907
2206 9268 0.0378438
20892 22824 0.514253
27221 560 0.646652
8512 25800 0.765285
28364 31218 0.908051
27883 19402 0.293675
18923 24098 0.0839029
31849 23706 0.913387
4844 16323 0.90627
30771 15289 0.494495
23729 24864 0.573687
28932 18720 0.565318
19141 22341 0.47062
26866 26777 0.175407
7223 22074 0.356017
2842 20103 0.129682
27685 21233 0.615262
25726 3643 0.212606
13095 8698 0.144543
14366 11753 0.357379
5985 21275 0.295651
31836 30392 0.933939
3235 4923 4.17158e-05
27816 7621 0.831363
27147 27806 0.429453
25534 20089 0.816093
20189 31255 0.977558
23911 1464 0.359741
24107 19125 0.928965
3344 2383 0.08277
5605 31724 0.556772
23895 21960 0.106273
14270 30523 0.621478
16084 13641 0.573727
24255 15996 0.970447
11933 12516 0.999244
14850 17006 0.849911
24717 24584 0.94846
9921 18369 0.12843
18297 23215 0.368988
3575 19212 0.835201
2851 10177 0.170637
2947 24923 0.429604
2716 27114 0.28088
26893 24592 0.52823
19738 19883 0.0917121
6876 25890 0.723518
32083 13548 0.741506
1142 29457 0.837303
27385 30524 0.782522
88 3905 0.407745
2748 21805 0.788995
28648 17423 0.122987
7147 31141 0.947614
13715 19672 0.320591
23663 29843 0.797533
17137 24873 0.766428
18137 16668 0.149204
30405 25548 0.550351
28080 10150 0.335125
2723 14733 0.848706
15799 7461 0.845935
25007 9036 0.501873
26400 24384 0.32478
24675 32097 0.208251
30392 13532 0.976896
17169 5183 0.770838
16188 31648 0.614088
9137 21877 0.875019
23275 1511 0.0935534
26486 23646 0.202932
4307 27043 0.553822
22559 20977 0.209817
2136 16056 0.312968
1901 8225 0.903597
14839 29977 0.225773
17782 16123 0.781215
12190 6128 0.984973
6734 27738 0.0694566
28908 7974 0.862986
739 1507 0.544242
25026 1734 0.561518
10101 32182 0.979226
21000 5906 0.942525
7331 7506 0.792545
772 31072 0.272762
4493 20337 0.141095
26790 30901 0.507617
5288 12056 0.436648
15817 25812 0.856319
4733 16741 0.134987
26921 30020 0.93204
22397 22410 0.377069
11866 5313 0.712189
30040 22884 0.25759
12575 19679 0.508133
20658 28074 0.789624
14482 2818 0.809592
8461 22618 0.370169
30382 6730 0.944527
28121 14551 0.0798945
6555 1286 0.899508
15197 24397 0.687331
8981 12098 0.369147
12178 1353 0.0978355
23280 14928 0.298207
26901 29810 0.553822
29915 24367 0.00158238
25471 2555 0.404433
14094 24814 0.873741
7246 16436 0.0425552
3069 29232 0.0129113
3934 16769 0.118877
1695 8628 0.0477454
7055 16031 0.350897
10961 32125 0.614651
32454 30445 0.247114
17224 2255 0.592369
25012 27695 0.948222
1839 7806 0.335471
31696 2027 0.473053
29008 9883 0.331797
27758 6754 0.580152
31976 27799 0.794234
7604 2741 0.299625
27457 21669 0.630378
31813 2551 0.710911
15370 10934 0.658254
6408 17630 0.358166
19889 9462 0.880227
4933 12440 0.863651
24619 8663 0.00613274
3268 10777 0.857887
11394 8082 0.0291084
3556 31184 0.0479602
20462 4401 0.96472
9952 6086 0.944396
19513 19651 0.793209
2945 19313 0.72959
27771 24831 0.581493
6699 23977 0.29374
557 17075 0.963357
4639 3960 0.87003
32482 15665 0.00852214
30574 14019 0.766641
7310 18292 0.510251
31387 20556 0.8988
2405 21743 0.233939
4389 265 0.749704
24315 11884 0.139986
12728 8640 0.838275
13479 20995 0.54594
16778 23046 0.898622
15880 23833 0.584943
9104 15615 0.137441
30633 28311 0.632934
26734 32304 0.385821
30217 14944 0.148796
30379 21222 0.612777
3375 25662 0.154803
10236 5878 0.315034
23042 5646 0.136153
24782 30467 0.0908846
27407 10544 0.744208
5027 14318 0.987711
23802 3924 0.602795
16556 28010 0.280271
18386 18367 0.90881
13714 618 0.0858705
23840 31015 0.35932
24100 7172 0.518203
10612 6153 0.384783
20878 13609 0.624565
1446 28587 0.0825647
15908 12659 0.575642
27639 4428 0.149007
3217 7171 0.382427
27716 23859 0.760829
16661 19877 0.43986
2900 20524 0.24625
31237 21317 0.737904
24239 5189 0.740726
13363 24491 0.428883
21349 952 0.850672
601 32411 0.539045
20086 13547 0.782399
17757 28175 0.579071
9139 12921 0.393428
4111 24768 0.154951
30529 22688 0.0248342
23293 31620 0.648362
31335 32464 0.48847
7709 1356 0.030332
12701 7024 0.025268
16642 28872 0.189776
24095 12566 0.959021
5121 23384 0.794394
18812 27417 0.690479
13609 10277 0.571705
32163 15989 0.0603122
20567 2785 0.238303
11070 30750 0.620475
29123 12441 0.82313
2422 8257 0.540023
4952 29075 0.693363
434 24389 0.0158386
9424 24750 0.565692
7284 5750 0.744043
8498 17321 0.475985
32344 21695 0.692886
25509 27242 0.56577
20483 2524 0.933652
19580 31744 0.0518696
25849 9578 0.381663
24864 23369 0.0277021
32457 15804 0.280977
23784 31701 0.0883199
23481 20792 0.163678
12533 14107 0.912852
12642 4941 0.849681
14065 26964 0.49594
3401 19756 0.605494
31112 17160 0.522748
11607 11912 0.317637
18801 1010 0.932781
2630 27506 0.497692
8550 3420 0.772768
1300 24318 0.171171
23940 2923 0.730847
32254 3802 0.0462887
27182 2440 0.207418
11453 5744 0.110994
28519 21003 0.147789
16503 19858 0.730502
10192 15323 0.0642523
7348 1335 0.00550357
20644 14643 0.551524
18637 1855 0.0387165
21355 6362 0.557642
28604 3784 0.437946
19860 15589 0.351205
30188 13379 0.971292
11579 1647 0.740123
31227 24528 0.377183
23062 17787 0.62237
6256 21368 0.80011
21625 28472 0.349591
16294 2680 0.623767
12815 26369 0.0981919
22752 28512 0.557605
6892 31671 0.382552
1896 22771 0.418205
6922 7098 0.214516
13421 23340 0.0886898
9888 13611 0.577702
32407 20983 0.969902
5977 15232 0.0079802
20822 25033 0.849608
16792 15824 0.736627
7377 19441 0.0511086
13542 20601 0.0395261
17988 10152 0.117386
1825 5790 0.862685
18938 16849 0.809207
28797 6871 0.508126
7481 32046 0.56877
20793 147 0.727694
8673 11901 0.491393
29864 18764 0.936075
12624 30397 0.668701
22853 11535 0.889201
10056 26160 0.367829
15082 23386 0.0395261
20144 29171 0.912733
7622 6130 0.0103152
29819 20156 0.0663949
31526 358 0.962974
21749 10290 0.336253
20513 3178 0.067314
6951 5480 0.156236
23950 105 0.533952
2040 11184 0.503667
17466 16392 0.00819768
21705 19528 0.171383
4182 31049 0.749796
13561 8976 0.0693647
32183 26873 0.514177
12963 19189 0.354213
10391 12888 0.855107
3723 15035 0.0596142
20403 23110 0.311921
13446 11762 0.0425552
93 19305 0.457038
16025 13628 0.958554
21146 4668 0.605938
6705 29554 0.0687525
12162 25917 0.781527
8429 15790 0.120424
22744 19842 0.638076
8833 20527 0.497944
19693 27107 0.380003
11489 19832 0.0780515
831 3301 0.121816
4678 4369 0.518198
257 20422 0.239523
27504 7206 0.736627
3 15223 0.265285
25257 9660 0.895572
29160 15919 0.335899
31532 8389 0.360753
23035 31824 0.847842
18507 16637 0.412479
4436 15225 0.716881
4060 12752 0.870953
16924 11197 0.384188
7243 32295 0.919559
14249 19908 0.0823746
27446 9872 0.0376894
11258 14381 0.21241
1522 22926 0.796955
23344 10713 0.382562
30233 31319 0.0547075
22950 7515 0.895724
21550 5983 0.665257
28550 10689 0.103653
7367 17161 0.517506
29171 32506 0.940434
23444 19740 0.312243
23267 22847 0.255385
6735 16785 0.149642
413 1785 0.688213
20886 11740 0.322189
10091 28054 0.857417
8406 21352 0.612266
11711 13139 0.900932
28115 15246 0.919409
28363 19948 0.636791
18166 8907 0.205772
21499 26605 0.0893883
966 12938 0.130999
3824 16281 0.927719
26032 27895 0.98068
16092 26792 0.937352
21172 8297 0.0212188
14380 22717 0.1243
17393 32762 0.0807199
29660 21954 0.0732053
17913 20444 0.530836
24364 22615 0.932965
13989 26411 0.921087
19161 19324 0.272152
10451 7212 0.953734
4980 13595 0.990272
6258 17863 0.314185
5698 15761 0.0624478
4800 2808 0.809828
12646 31843 0.373107
19315 800 0.735566
4827 20367 0.526598
20357 16011 0.36421
5427 20213 0.790692
14393 7412 0.662658
23802 6830 0.0291584
7308 4257 0.190517
14518 13488 0.753988
28933 5750 0.847253
9876 13522 0.205969
19991 14677 0.834582
28495 16975 0.245511
14512 9700 0.12588
4471 274 0.849782
23889 20837 0.437847
12011 16505 0.452053
9612 2986 0.185441
15814 11059 0.414969
6301 27679 0.269673
31199 4819 0.261385
17901 10372 0.473028
23923 17633 0.606532
10588 25015 0.932249
17367 23656 0.700848
13709 13624 0.375742
32642 3445 0.130737
25700 25237 0.384436
1985 1780 0.621589
28658 2364 0.761463
10406 10303 0.272668
18393 21308 0.778039
2961 22557 0.422864
24723 19379 0.246167
13556 30011 0.98483
21187 30688 0.5322
3632 26771 0.956282
29958 27867 0.310446
5715 14803 0.487973
21401 17345 0.299031
8435 16390 0.396693
13957 19611 0.416816
26896 3488 0.85184
5958 226 0.761475
20921 12380 0.295141
24671 4209 0.0122251
24294 13034 0.363259
1750 19135 0.449051
15933 663 0.893242
28668 5276 0.367538
2662 16982 0.923597
31699 20608 0.702228
5584 4353 0.201172
17315 1933 0.601356
9761 13228 0.366746
19623 29026 0.894083
21551 24518 0.895014
20754 30974 0.327225
23084 24347 0.747874
31014 3100 0.582528
32244 2322 0.842372
23082 30355 0.695599
16529 22992 0.635393
22195 30825 0.787886
6198 290 0.49711
22501 27489 0.628795
6960 1079 0.502899
5518 3239 0.807689
7380 10850 0.463456
3802 9152 0.937008
29277 6860 0.853364
16551 11129 0.952008
4279 30229 0.618378
18579 2588 0.450823
19493 5608 0.317142
9914 1757 0.374558
4365 24301 0.133032
9117 8227 0.937072
18691 27961 0.43823
6706 14340 0.463855
28497 15205 0.259167
30850 10936 0.509519
409 23443 0.107759
6610 3501 0.567068
15084 25475 0.884433
11876 17080 0.112083
13670 14508 0.324271
2018 31666 0.0990013
30582 21552 0.0951756
1863 9827 0.767949
7167 24176 0.127127
9436 23794 0.647227
3633 9786 0.739166
13351 19005 0.0981456
26109 20034 0.27121
16260 29171 0.511759
32323 26132 0.528667
3284 7663 0.820866
9877 28465 0.940044
30224 9936 0.320177
1207 8738 0.157785
17622 14571 0.265802
17921 18745 0.00726772
15728 4962 0.251929
6563 11846 0.548883
23151 4594 0.329765
17163 6509 0.884453
24331 10631 0.814907
21259 26291 0.995963
23983 7162 0.206409
15510 4730 0.280392
28908 9231 0.157422
13965 24787 0.821697
22634 2609 0.969846
32418 14867 0.789174
13079 1748 0.48747
9314 188 0.162019
21115 27770 0.00939197
16577 17340 0.848706
26831 29617 0.747374
28665 23632 0.986163
30895 1688 0.638499
21101 29736 0.806079
981 9429 0.0132404
3525 7206 0.85414
29856 4685 0.0509777
1621 11800 0.600164
12843 11724 0.278155
5213 30209 0.159676
15120 12528 0.742371
29923 25638 0.285966
23637 14709 0.826428
12191 24817 0.875405
29173 27156 0.412573
18085 4031 0.0687376
14886 12299 0.344587
11505 3250 0.000305593
3879 10241 0.439947
19319 31093 0.776726
20700 6300 0.695568
12958 9452 0.28367
4415 21390 0.94262
28796 26736 0.678949
1180 14804 0.584442
3664 11590 0.495983
18094 11808 0.477947
16778 14853 0.555988
8090 13242 0.820979
25627 5295 0.639514
27712 30462 0.00766447
4088 16501 0.219053
9444 23435 0.112919
4334 26140 0.687272
20571 27666 0.725843
32123 31785 0.273843
25206 6308 0.685947
11381 16560 0.250195
16664 9338 0.398464
16342 30910 0.590939
30563 3846 0.753314
24778 30256 0.361665
20486 17725 0.3144
15655 14190 0.189987
12410 11093 0.644009
20862 10307 0.130437
9112 16922 0.739796
5329 8652 0.101304
16717 1330 0.782614
872 10565 0.683995
24496 9856 0.881824
11782 31245 0.819502
26563 17021 0.462472
13493 13984 0.525274
20961 6162 0.252737
17948 28826 0.369393
10300 22516 0.864197
18325 26053 0.456679
21581 1628 0.937887
28605 24037 0.941171
17689 29323 0.510159
29430 20819 0.6345
7117 9986 0.8988
30680 26988 0.934329
6746 27931 0.492577
1968 15675 0.264966
30253 29314 0.63281
16732 24972 0.837145
11139 9467 0.732727
13971 32440 0.0784962
23322 7174 0.362186
13735 1073 0.826979
11717 31455 0.380003
11527 14074 0.249205
13978 5974 0.574809
1794 11161 0.801287
19577 1950 0.40553
9076 4245 0.594769
16965 22228 0.187158
3800 32611 0.346364
11699 9455 0.695067
10463 22486 0.963357
9107 8693 0.597431
18154 7812 0.305287
19554 19719 0.92651
4554 24193 0.933693
27933 7789 0.451798
27453 3292 0.629985
17082 15206 0.326053
10875 3155 0.290484
12582 15639 0.0488791
9678 29027 0.0796218
9208 30928 0.359545
2086 22163 0.759438
13707 17317 0.746712
25162 19533 0.591217
28408 24637 0.294035
11268 10614 0.474338
29768 5335 0.548297
18868 12547 0.189087
6904 4037 0.368998
14508 13830 0.893768
15249 11758 0.282346
20452 25658 0.0564079
11176 1530 0.273645
18606 37 0.714495
24452 27298 0.955622
3189 27535 0.863402
30698 6103 0.754174
2379 31644 0.547671
15106 23851 0.164882
15863 2841 0.840638
9772 32002 0.988939
27630 17144 0.378003
3794 27779 0.473826
3937 1709 0.454598
19080 459 0.790643
21350 26294 0.609328
10469 12970 0.963991
16440 13314 0.981754
21325 23420 0.233108
10895 3491 0.283391
19925 21763 0.974467
20275 850 0.492065
1889 30697 0.169126
28507 20663 0.334875
31281 13407 0.579439
19786 11252 0.300061
451 12288 0.0460904
19951 29598 0.392885
6692 16390 0.240939
17633 2004 0.357212
21872 13024 0.028151
28423 18608 0.306598
31981 7362 0.475822
25808 538 0.899154
28186 23332 0.655561
3627 4607 0.995734
26388 24340 0.82342
4265 16607 0.201076
31496 20803 0.903196
6925 27164 0.506349
18403 313 0.149715
15880 1838 0.998505
17125 22219 0.18107
17486 24634 0.948298
6438 3111 0.886868
20794 9882 0.622557
23009 21378 0.597055
6150 15811 0.479345
16839 27373 0.6807
24897 26286 0.984751
3886 9968 0.52605
17845 26874 0.967543
1350 13134 0.376495
23309 11796 0.00870738
4868 27526 0.508771
13996 20103 0.138517
30456 1485 0.40598
28056 9322 0.0153353
15807 11089 0.344912
26297 5597 0.0612216
21614 30824 0.941948
3113 24274 0.611926
16720 24132 0.577008
18197 5664 0.246662
8805 1152 0.637014
31744 29828 0.269487
31770 7201 0.0824868
6924 11188 0.963201
13602 18875 0.267659
28661 10519 0.941948
15077 1105 0.149235
21499 32184 0.192584
16467 27296 0.917979
19388 10333 0.540698
1067 8515 0.408565
16848 7590 0.738971
31306 31372 0.712305
26955 16823 0.288163
20070 138 0.392336
103 27974 0.408336
426 14679 0.937619
27184 22284 0.130334
15744 13235 0.650652
9838 3416 0.479321
4180 27012 0.590538
16551 2127 0.772809
29201 21774 0.361177
984 28948 0.952095
22594 26576 0.818574
25994 12818 0.473053
17799 1694 0.48002
23748 23117 0.477184
661 7962 0.914792
21904 24639 0.692777
21232 26472 0.811626
21144 24283 0.291669
30039 14985 0.676342
651 31347 0.252399
6763 20508 0.651974
16352 3664 0.172604
7370 11827 0.00494832
12648 11187 0.37996
27326 23311 0.542037
12420 13791 0.667839
22866 11256 0.373676
5569 5478 0.126203
20667 15508 0.428128
3634 31948 0.110881
12351 31769 0.0680706
16600 7372 0.575514
2401 9758 0.187661
24897 28694 0.117285
17089 31109 0.0144482
6115 18679 0.638929
16577 7991 0.735508
19948 10218 0.924495
25698 22661 0.83745
25745 1311 0.876529
20667 5145 0.0999567
26228 23577 0.992453
25682 12393 0.499238
19164 6523 0.246662
27162 19966 0.461828
24726 30809 0.57538
13937 15424 0.937008
5315 7826 0.118809
27878 25179 0.919543
17457 28469 0.225895
24781 16410 0.737888
32347 2715 0.0580749
20394 13079 0.25944
4438 16720 0.250406
18756 8526 0.257799
5705 1463 0.860081
5516 4794 0.468498
24937 19902 0.0994243
26492 5860 0.759988
12153 13406 0.384563
28850 5704 0.151879
21569 28988 0.648128
13118 9395 0.564785
26978 11650 0.237493
16123 15142 0.881137
6126 7299 0.942417
29803 1085 0.907717
15191 16583 0.74757
25522 15249 0.096457
12063 13670 0.0550097
15223 1704 0.568878
3448 18584 0.319066
2566 31227 0.53421
18166 8233 0.202004
31942 2659 0.0183786
22837 9258 0.993336
22674 28299 0.268608
24181 21638 0.435193
3872 31921 0.0742968
20313 15606 0.850152
19115 6425 0.29731
15686 7184 0.511181
22096 1758 0.00141272
29008 15426 0.909702
29650 28165 0.355877
7857 2603 0.653494
26736 29687 0.865406
26866 31909 0.828068
13864 3007 0.10513
4408 26826 0.647082
14324 1894 0.938539
17922 16762 0.884133
17667 17220 0.849306
15710 26418 0.0123595
169 15402 0.786154
26284 9758 0.889913
4821 22309 0.280692
14054 17839 0.62186
27434 28186 0.396626
24377 8477 0.436531
32371 8626 0.297849
9898 19916 0.765912
8542 451 0.564991
14648 641 0.725843
32225 23028 0.959121
796 13125 0.320117
31644 19025 0.776342
9272 29866 0.538579
18153 21150 0.414113
25158 30152 0.205772
31797 5287 0.485546
20600 31110 0.809337
10859 29084 0.688923
14704 26629 0.501276
8843 27453 0.700095
2051 326 0.317349
2946 30275 0.893565
1168 27541 0.0671847
27144 8814 0.881629
25249 9899 0.027781
5809 19917 0.0906488
20809 4059 0.341545
27119 17978 0.200222
29630 20166 0.166203
13222 29304 0.266536
3581 20162 0.904189
3436 6344 0.888911
25602 13184 0.363361
3443 4224 0.45809
13145 13241 0.508278
10365 11397 0.319678
25329 21636 0.338408
4799 7942 0.399932
21728 15594 0.657866
6657 7324 0.170008
13734 12320 0.584796
7620 19127 0.631433
8759 24052 0.372407
8109 12658 0.619081
14522 16496 0.382552
29766 3250 0.472333
30563 27577 0.726587
11944 12838 0.178067
26036 26984 0.370484
11666 19031 0.229685
6098 30579 0.261086
1934 22981 0.0318081
1478 9752 0.234387
27573 9044 0.877271
28683 24127 0.390081
24331 24736 0.869195
7442 3115 0.633494
16029 13652 0.0795981
7490 19603 0.627552
14472 19137 0.805751
17546 12148 0.732448
19372 5690 0.01416
14922 27644 0.755721
29811 8829 0.389443
22429 28395 0.45945
31701 18877 0.116072
166 8013 0.465717
27067 2714 0.191483
31378 25893 0.330838
15917 529 0.349119
4150 18126 0.168286
30216 6632 0.6266
21491 23710 0.058507
26003 8658 0.842748
20519 13642 0.108276
617 16269 0.315476
13921 7994 0.665046
1060 29621 0.356525
20865 22672 0.929872
20100 16288 0.468466
32747 31790 0.514104
4501 13847 0.898467
14029 22835 0.0622779
11479 27244 0.777814
14643 17851 0.999925
5124 7622 0.0132801
11429 225 0.898505
14532 16660 0.151312
3707 7745 0.0553545
14548 22495 0.512188
2554 23138 0.660931
27989 31156 0.111959
2331 15085 0.0204445
2377 8448 0.916021
4297 24173 0.385811
16284 11653 0.741288
28761 29005 0.221995
29074 17101 0.354131
417 27913 0.218964
31068 29443 0.033824
19792 16910 0.855315
10764 22378 0.882184
1112 7112 0.127127
24741 20804 0.197064
14172 31304 0.298634
6960 119 0.693298
31260 20438 0.1196
31340 23466 0.626532
25256 7810 0.587736
19061 9247 0.176541
28977 9006 0.435624
15550 14752 0.103664
6492 837 0.221409
14967 23925 0.616659
16251 10232 0.00754981
313 16682 0.537219
12280 9846 0.785572
28739 16279 0.372253
14325 9994 0.87908
29652 26032 0.16526
2827 29923 0.944869
28423 20196 0.0993965
19317 22558 0.923264
6811 14546 0.998224
28652 1945 0.258368
10481 761 0.436364
11744 25269 0.991117
28697 22125 0.409627
2171 23684 0.261167
21123 8425 0.695411
7749 16472 0.332104
14372 17915 0.452165
23135 6895 0.656249
23817 2075 0.068618
15283 20759 0.782515
11623 19189 0.00438774
5752 8825 0.467782
15734 27981 0.853051
15126 12795 0.0623382
16854 24013 0.255681
18637 26173 0.0476519
2850 23985 0.712512
31953 27417 0.070586
7996 7029 0.16642
9576 18148 0.00547587
13709 16591 0.80779
20489 31047 0.207867
14714 26921 0.836308
32127 8731 0.356208
32166 5667 0.882838
27689 21839 0.457493
5567 8434 0.242986
673 4345 0.595775
10693 14662 0.772502
15280 8785 0.85435
28756 13575 0.689252
22858 3237 0.632897
6672 10126 0.721969
22496 9883 0.339281
6149 26538 0.06852
20651 3000 0.530026
17461 21454 0.881458
29173 3332 0.188776
6402 12119 0.517586
26049 22881 0.0752694
32462 28648 0.156496
28937 4367 0.631556
28630 11496 0.675706
10372 25252 0.131984
5471 28505 0.493099
16004 10808 0.524219
12073 6670 0.55025
9593 3608 0.0169937
22404 3017 0.27253
12642 4030 0.866532
6783 29910 0.481006
32065 7002 0.299031
6764 13802 0.483654
876 16472 0.649812
17845 27245 0.479534
3713 8209 0.834562
15099 6837 0.794234
17845 26854 0.584286
12669 6449 0.575608
18372 6745 0.0344513
13529 964 0.22697
14388 19349 0.748118
7186 32167 0.0523066
25673 31991 0.445709
22349 263 0.337833
29387 26467 0.146416
1181 28968 0.398052
22308 30292 0.00900335
28890 962 0.441379
6225 20753 0.978068
19250 19202 0.250058
43 7023 0.0102633
5673 15852 0.077494
15508 2711 0.460435
18693 31240 0.0743225
9427 2533 0.440416
6254 24893 0.586313
2086 31852 0.767108
30014 9749 0.534463
18673 17772 0.0389194
4752 3193 0.888621
27947 4657 0.982221
19859 28551 0.168285
4140 8312 0.840389
11306 29615 0.561679
16910 14608 0.768368
9923 26283 0.513238
30273 13210 0.478209
20124 19145 0.486686
15026 6103 0.868718
3783 8737 0.033824
5103 9699 0.406227
30064 3513 0.348167
29967 14411 0.857513
21965 29540 0.708205
5674 5630 0.280776
15937 12093 0.727214
11081 21374 0.259052
28364 31382 0.760144
29608 13891 0.936926
21460 5691 0.738561
29061 25722 0.937407
30880 18630 0.677422
6809 17184 0.046975
20684 24433 0.401043
31933 24028 0.241228
2050 17899 0.759242
24216 26862 0.570371
30560 14654 0.0115468
30621 31771 0.737907
12904 11424 0.665222
16141 28729 0.458826
8317 2918 0.933594
16358 1759 0.605663
7445 11689 0.349141
9876 9300 0.0171397
27538 13313 0.338224
6396 16563 0.013915
9171 23148 0.398614
20607 12880 0.988015
344 8984 0.0209962
5767 21602 0.279505
2082 27699 0.294899
31750 28275 0.975205
14472 29688 0.734106
12933 7880 0.331676
27314 26742 0.360781
3054 13116 0.213549
14444 18399 0.282926
24717 9585 0.207436
10329 32221 0.498161
13285 26758 0.01666
9211 5962 0.705872
22415 21637 0.133772
18872 21023 0.299833
536 26843 0.427905
28535 1533 0.39568
2836 14256 0.877863
32159 23782 0.431922
23292 24453 0.651685
4351 19661 0.93042
8432 28211 0.747971
18780 18106 0.257871
20754 30902 0.951086
24325 13695 0.121899
2155 12682 0.940075
14958 27896 0.419799
30914 1444 0.121334
28040 30722 0.886086
23637 14399 0.938336
15545 32313 0.180818
27555 8058 0.0750516
1613 9605 0.731697
12639 25732 0.290605
7933 27154 0.710858
21738 16593 0.205868
27082 12033 0.60669
24703 14543 0.319293
3147 4009 0.459991
12757 10804 0.820022
8433 10883 0.986441
2252 9247 0.325718
19066 8523 0.83375
20253 27300 0.810572
15525 25746 0.785795
16766 11826 0.366553
14580 31938 0.560608
11101 23011 0.109101
12480 10826 0.234389
31427 9575 0.435793
6931 27000 0.0421399
18806 26537 0.290007
5759 31302 0.354131
1409 24866 0.884246
5320 18994 0.431528
13389 1752 0.623532
13476 31169 0.591891
25953 13251 0.683937
12694 19659 0.153379
15187 23593 0.349119
462 24654 0.147038
32340 15560 0.713348
29911 26606 0.696735
22044 20224 0.644316
2416 13430 0.482579
15284 10675 0.0571396
4428 12700 0.916988
22840 19563 0.631933
28118 1451 0.43063
13224 16913 0.637925
31798 8473 0.992937
32299 11322 0.817636
1943 17056 0.93894
545 11207 0.952891
5374 3134 0.826015
20376 762 0.594532
27470 21900 0.467124
19468 3319 0.464267
11576 9833 0.860806
13779 7915 0.112137
22678 28543 0.931893
25755 5199 0.9788
16419 5644 0.638236
32581 9149 0.940308
11358 22488 0.497259
13186 11521 0.288602
13615 5638 0.702814
17298 7201 0.474643
13610 21729 0.832641
26262 1428 0.488186
21276 26410 0.874542
31467 23454 0.575547
19421 11819 0.524487
25729 17605 0.109174
22584 21130 0.0872899
27225 2412 0.909794
1630 30508 0.890068
32270 19706 0.706029
3259 11953 0.19091
26953 13569 0.36257
13767 13561 0.611348
20633 25206 0.287896
11430 13764 0.828124
14905 21922 0.500687
23339 18074 0.282248
16986 7171 0.0107554
826 14506 0.109615
7433 13401 0.939667
19033 31193 0.428064
5532 18055 0.0881308
17499 12610 0.716437
29226 8233 0.596501
17901 12689 0.34584
10012 6155 0.628361
22470 27793 0.906255
1481 26774 0.469471
20970 17633 0.710436
28873 14087 0.170278
7558 12223 0.0787916
14882 4379 0.441104
8046 18939 0.204346
28783 28123 0.330127
17949 1754 0.446123
25185 22326 0.923095
5854 18200 0.91419
24318 29839 0.450539
15018 29711 0.0733699
2263 15598 0.211418
4448 12310 0.342596
2089 22533 0.786956
18926 1685 0.544193
5983 16842 0.52978
20518 27586 0.546052
4757 2157 0.878013
16553 4218 0.933899
14028 27169 0.574765
31671 11000 0.176134
5074 14568 0.471146
27448 3727 0.289088
17840 11094 0.889961
14220 10882 0.0051381
9944 4019 0.249794
7426 2433 0.406668
1288 11371 0.437606
10160 11702 0.403005
28548 9353 0.32968
15116 28953 0.852282
1780 4507 0.658597
24308 21509 0.448186
31420 17710 0.739828
22247 25869 0.970475
17789 3726 0.120987
8936 2736 0.13971
10025 2694 0.582221
18332 13821 0.00126483
24362 17484 0.66317
16695 30811 0.623913
11500 5958 0.0565578
3030 28594 0.149007
5453 20757 0.0930977
13285 27562 0.385599
25677 24911 0.815241
356 13709 0.106013
7600 5685 0.463794
30674 3038 0.706944
2220 23242 0.402148
31991 11219 0.940298
13093 12499 0.257425
27873 15424 0.492538
8988 32489 0.831387
28658 3177 0.452526
9580 19114 0.469292
15801 17118 0.228075
6258 26864 0.0274761
24761 31490 0.913855
12785 20232 0.549349
6438 3168 0.457169
23083 9515 0.723012
2093 12910 0.60143
18929 28815 0.474325
17793 31453 0.328809
10713 18223 0.0749879
29806 31049 0.991556
6063 20813 0.524487
3439 23752 0.0290907
13521 3108 0.297973
30169 3422 0.644126
6681 25472 0.317251
18216 1580 0.993086
10075 19947 0.0877688
32718 8988 0.252657
25089 11525 0.346837
3453 30894 0.423228
19158 13595 0.89324
1639 18009 0.394267
23660 6296 0.848635
280 20669 0.90659
3682 20258 0.734998
15112 6729 0.543132
9007 30563 0.323265
30650 27686 0.657798
10537 23474 0.551731
1272 19067 0.3849
13452 12443 0.369435
9850 11579 0.331692
31907 8203 0.450628
13673 6167 0.871354
449 10884 0.890718
15128 174 0.0844
32488 10857 0.411348
21773 15077 0.230983
9886 16710 0.765809
29767 22382 0.36195
25665 24714 0.101764
4031 11812 0.618384
12085 13071 0.972176
11232 25295 0.524127
6909 18733 0.289088
1303 17928 0.868884
5215 19302 0.296488
183 22650 0.749796
5496 30384 0.401366
7874 20515 0.090759
5185 11193 0.479073
32182 10251 0.140803
21047 8882 0.724601
14750 18089 0.437681
1802 7045 0.409221
10720 14071 0.788773
11652 9447 0.930367
16753 24224 0.154696
21730 8079 0.843232
19582 30277 0.768185
7831 14192 0.675807
30300 656 0.0283885
13013 12183 0.886307
17113 14823 0.983415
27981 27200 0.820692
6211 13531 0.733611
32147 8201 0.0441759
13016 31048 0.572728
22375 8189 0.311521
5840 17099 0.469292
11053 4611 0.79357
6842 12850 0.996692
25933 11085 0.161944
12389 21557 0.257047
24711 7213 0.653603
17227 65 0.63852
4035 12524 0.968713
15509 28736 0.886303
24974 8856 0.52612
6087 7570 0.603231
23959 24683 0.985362
29406 20077 0.414969
22336 10530 0.237322
29637 7987 0.475109
14865 9085 0.379619
25201 1288 0.751649
26299 4087 0.343303
4683 29340 0.454929
21834 2475 0.884237
11491 25215 0.954492
32156 7055 0.399073
10234 6091 0.868943
1090 3981 0.929386
25927 12817 0.921541
23572 12587 0.63442
23217 6311 0.312334
30827 19629 0.850805
24647 14806 0.862194
29762 1102 0.544128
7097 31907 0.0416208
16528 13008 0.751613
21239 23406 0.111863
728 10314 0.286516
5493 9761 0.990284
21340 21799 0.755572
23087 19528 0.641198
10061 6169 0.641291
5067 29849 0.277331
19842 705 0.429415
26192 6603 0.327429
27152 11749 0.808353
4317 1322 0.133168
27567 6611 0.0338626
29864 22167 0.470448
24909 1791 0.326707
17236 20988 0.16238
22162 1092 0.308293
10361 9754 0.0224265
1795 18983 0.489129
12073 8724 0.995192
21212 32687 0.0424963
18152 16125 0.885347
26574 28059 0.801474
18207 23540 0.95828
32743 9775 0.833115
22700 25942 0.208719
28843 20429 0.435922
12574 12967 0.271511
24916 21072 0.558433
24032 14297 0.480469
7224 11287 0.54669
10554 9872 0.866426
6761 21649 0.323295
32634 11543 0.98387
18788 14408 0.402882
29531 23109 0.77726
28813 17040 0.8024
5955 5822 0.304343
7602 1150 0.279965
21893 5617 0.910908
30916 32405 0.87834
24746 12783 0.875351
8471 25040 0.582145
10556 14661 0.0457802
25686 9978 0.13713
27823 19052 0.0327923
30384 2513 0.524835
31462 32263 0.287405
23568 517 0.927169
6226 7263 0.631832
9274 14355 0.303875
23978 10734 0.00637703
10982 27117 0.551552
24053 26004 0.761502
14269 26363 0.811662
26751 24326 0.493036
31995 15427 0.326815
20552 8888 0.983598
19287 21365 0.820554
3305 31557 0.922763
27846 15457 0.261385
25041 16623 0.481304
27599 28579 0.27701
7036 30321 0.875865
27591 23612 0.995006
30891 1223 0.447223
6892 2535 0.365396
9524 27666 0.0366608
32452 28329 0.392865
31669 3253 0.518203
13778 21265 0.521839
29945 31040 0.76502
23439 2915 0.911353
11449 1573 0.53115
23451 10287 0.624275
8845 22151 0.12879
7653 10405 0.989945
22427 5373 0.590255
22566 4283 0.13507
17173 6451 0.72513
21002 27544 0.26132
19434 22037 0.933287
5564 21336 0.950705
19645 31558 0.236115
11442 29424 0.357727
30795 31857 0.364441
23583 21556 0.875351
4315 9270 0.773709
24434 15541 0.959859
6890 32638 0.564777
3574 4055 0.736993
22203 447 0.6357
1067 2811 0.89154
23564 9911 0.644472
6570 20176 0.975685
16824 3277 0.516502
20466 13575 0.934865
20613 20217 0.182242
20796 9364 0.0539161
27595 17462 0.00811605
11766 922 0.138136
2277 25884 0.529471
11655 22407 0.415459
20305 14989 0.523125
6298 12266 0.271215
18129 10104 0.177296
18679 24161 0.813178
6910 4094 0.915669
31856 10150 0.85848
31836 1184 0.535454
3483 15182 0.299475
27198 3518 0.29357
13759 30210 0.892862
25534 19850 0.425031
750 23909 0.54975
8775 16568 0.774438
21814 24184 0.926749
13111 31735 0.962606
1222 17833 0.648319
20747 6896 0.698871
7021 3449 0.832273
26550 29658 0.334312
18530 4744 0.935527
2202 9340 0.39724
12485 19424 0.569118
19251 4021 0.972265
6722 27830 0.805135
3470 32672 0.366334
19643 5482 0.780009
23542 23082 0.539027
27952 23995 0.295651
5524 6826 0.44848
27726 3397 0.535582
3497 12011 0.849574
15498 8867 0.709856
27900 6493 0.547897
9556 7058 0.131021
9459 25095 0.806778
8757 24447 0.86247
27455 1955 0.820788
21662 22831 0.135636
1095 16913 0.00494832
26309 7156 0.474775
9050 25364 0.674632
10081 18840 0.985
7038 31399 0.683999
17747 24019 0.326995
9629 32554 0.295141
11434 25906 0.0609909
15127 32357 0.80621
2795 18062 0.346808
30872 24603 0.149216
2449 8134 0.0448146
3174 29073 0.763727
22395 12107 0.553256
27973 24887 0.999202
17839 16593 0.0583488
20523 18067 0.757799
21593 12582 0.837309
20954 22252 0.0881294
10399 23668 0.855064
20001 14113 0.746019
25235 8103 0.831829
9996 4834 0.757639
14538 26545 0.643239
5590 30147 0.955087
13868 143 0.129907
2494 4460 0.413102
14388 21291 0.842938
11632 5923 0.238124
4618 20401 0.965056
28179 9074 0.722637
30780 3912 0.0964488
15249 4760 0.774588
7241 27034 0.109615
22815 29305 0.817398
19973 8114 0.00893502
29027 6315 0.179369
6475 27381 0.997141
3371 26341 0.293081
21916 3428 0.193831
69 13222 0.883367
13631 14432 0.718266
10067 20294 0.564446
6207 17320 0.973359
11951 21156 0.295455
9426 16850 0.384772
14471 7326 0.362343
18436 31706 0.32748
15053 18957 0.334026
9505 6679 0.840794
26058 8961 0.599996
13210 22229 0.922935
8075 15304 0.196632
25773 2259 0.0133483
15848 9763 0.00779343
13684 19083 0.781337
2179 22924 0.447334
26522 7664 0.540707
21934 32318 0.908698
31162 9192 0.319266
18211 13561 0.234528
9613 19349 0.10286
32379 7336 0.919742
14636 32531 0.669924
6720 24075 0.829252
4975 15240 0.639325
30832 3971 0.945223
21165 27702 0.365254
10957 24072 0.174774
28829 24901 0.649488
5358 5698 0.873834
17026 20571 0.984045
7207 17402 0.968934
16851 1909 0.62237
31273 31141 0.249869
18116 21536 0.855903
5042 29109 0.309352
9044 28827 0.527626
25954 4861 0.437847
31946 5737 0.478662
12094 31958 0.821647
20233 22035 0.936937
27208 11577 0.395956
506 12090 0.0797497
27355 22613 0.932248
12939 10240 0.324273
5823 25322 0.89503
29545 23890 0.051445
17026 18392 0.954431
13494 13010 0.522132
29669 19735 0.171173
7838 5413 0.381893
18366 32649 0.653174
4379 29088 0.6842
9034 11018 0.0990013
32711 27242 0.376674
19093 24497 0.0291093
31126 23235 0.00310634
19403 28726 0.749018
20835 7530 0.497559
5443 21060 0.852988
32573 5651 0.357899
12829 4914 0.626684
15075 28389 0.133366
24337 13223 0.382116
5444 11057 0.795546
2535 7684 0.444237
30446 25119 0.469167
19372 27157 0.0723803
27792 27142 0.483321
3793 9268 0.89503
19367 23082 0.646274
24808 11209 0.826514
31409 2457 0.569301
6073 3341 0.97837
14215 27618 0.132253
21549 26381 0.366834
28933 6300 0.215646
10434 14106 0.966475
31325 22966 0.760925
10424 12507 0.104774
30436 23184 0.717533
3867 7760 0.00455001
11722 7392 0.843645
16028 4110 0.133742
31803 1160 0.82195
32359 12473 0.812222
16451 30626 0.482083
12872 29916 0.556101
13177 16329 0.349828
15250 23293 0.947175
10662 21824 0.712286
28922 14739 0.0139431
18709 3768 0.966449
24906 8673 0.879113
16990 4825 0.396855
26367 27475 0.3123
5266 23708 0.644727
29668 22883 0.237612
24779 16584 0.861926
30438 29925 0.958311
18565 9226 0.969868
2613 9196 0.226143
29605 23754 0.927474
16748 2657 0.015544
29678 30923 0.884021
24560 26015 0.661984
16483 3459 0.894482
31277 14095 0.464852
14174 31430 0.946887
29714 23602 0.748989
23369 440 0.173884
24788 29289 0.284691
11589 6286 0.416493
31653 5773 0.368843
27042 1474 0.617136
28387 23160 0.25024
6338 43 0.502349
28332 17648 0.814479
509 4940 0.650845
29868 19602 0.259702
26599 29382 0.414051
12999 12239 0.0994442
11562 15155 0.444041
3818 3138 0.0616356
13691 14628 0.251421
29598 5218 0.199201
18105 2436 0.525463
6516 27990 0.248325
1278 16450 0.150081
4336 1951 0.810562
17845 26252 0.698505
30491 9906 0.90052
856 28399 0.828122
31247 23259 0.874454
16427 20985 0.414576
11943 21931 0.57365
24645 11881 0.934927
20003 20988 0.454704
24572 31536 0.0121724
32237 25373 0.702228
30662 30141 0.621648
13096 28807 0.741572
10367 12189 0.944265
30785 30420 0.546402
18395 22801 0.509019
28874 25605 0.418756
3895 20659 0.463747
8723 27569 0.150684
18954 17690 0.0887295
13378 25461 0.471126
11288 21818 0.0810091
27379 21591 0.97449
31143 23963 0.666869
22827 29951 0.785042
7034 20881 0.0204445
7252 14453 0.021187
27700 22040 0.92651
22560 14005 0.430581
1857 18433 0.206122
9793 23236 0.0892906
29508 32494 0.224103
16644 28823 0.618423
10693 16728 0.165752
24252 5169 0.546056
12684 25849 0.549284
31978 31099 0.609499
3316 22380 0.134495
25179 21097 0.789483
1563 18803 0.209428
1292 20254 0.642013
6832 13786 0.80853
28960 24508 0.687012
15594 12596 0.893765
12308 23828 0.531288
26075 1843 0.32627
7882 23807 0.433121
28938 12899 0.696156
144 19146 0.27363
4842 13234 0.299059
23597 32678 0.14421
20927 27589 0.760878
21836 30611 0.960561
24773 16260 0.193103
28287 23174 0.420749
32163 19394 0.975873
10419 25168 0.248173
24672 18172 0.942925
14673 2789 0.106569
23543 20610 0.816669
30739 13481 0.709612
11248 4362 0.052239
12146 22031 0.0737579
3643 12064 0.533923
15845 29656 0.375326
19174 15019 0.712194
14199 27925 0.959696
29207 10721 0.183041
22439 5588 0.523854
5858 11396 0.742749
28465 28294 0.231262
7153 19516 0.596917
233 13067 0.870776
11104 14486 0.207145
24816 13630 0.842265
23528 19011 0.914609
23412 994 0.848179
30013 3868 0.554805
4761 36 0.7399
12458 22255 0.760809
22309 10321 0.487973
28848 8065 0.621006
24538 25691 0.209314
2909 6765 0.676738
23214 15190 0.623792
7144 145 0.703561
12749 29997 0.612229
25819 26080 0.680855
12672 25358 0.7579
11329 31703 0.782146
20480 11702 0.290298
8121 13434 0.418936
6941 31540 0.103321
30961 10795 0.293401
23492 11208 0.573537
13733 22983 0.200927
10909 5995 0.938336
30120 28245 0.382764
1980 12308 0.0889281
22902 18013 0.525173
1776 4509 0.146032
27476 25676 0.549617
13810 8721 0.686319
9384 3353 0.0457484
26570 2253 0.180734
23575 23908 0.388169
22448 28167 0.859518
2341 30883 0.712217
7061 11870 0.58072
10826 22011 0.544403
20291 21329 0.592408
18582 31433 0.175782
9352 27479 0.347534
2603 10383 0.328953
20965 3820 0.484096
5529 27983 0.98181
21931 15086 0.116747
31103 6556 0.377117
24579 16873 0.506135
11584 20675 0.222065
15936 18307 0.990284
30002 9084 0.829016
7567 7797 0.693496
28489 13905 0.921331
70 26995 0.457825
25704 32108 0.613374
18718 13651 0.369509
20037 3497 0.430825
15506 30750 0.118491
29633 28731 0.784276
7120 1588 0.56879
9581 5838 0.787412
17628 10727 0.275099
23883 30303 0.947379
20461 25403 0.825651
7158 8452 0.0115468
8808 23137 0.15488
768 4435 0.196615
28030 31438 0.0102808
18339 8943 0.903894
22099 2 0.965896
30755 8112 0.109683
26762 15505 0.848177
24004 30616 0.590536
14234 28974 0.00059616
4556 25885 0.348899
23481 22297 0.156147
3758 18577 0.813348
9376 29366 0.402649
2057 27317 0.783781
102 1144 0.698036
25975 17379 0.908628
25234 20880 0.5322
13380 22618 0.566212
27240 15495 0.704626
13965 19791 0.690772
6655 4336 0.898659
855 20157 0.594136
28024 18912 0.0839713
10508 20725 0.261105
29231 27640 0.237897
24758 16163 0.33514
10471 13688 0.364978
25734 1967 0.997101
31931 23960 0.766263
16067 28286 0.153902
352 14214 0.674514
8986 1400 0.703863
26595 18840 0.309917
1775 9065 0.308204
16318 13031 0.0246471
25529 2462 0.594317
26386 25269 0.64402
19078 11484 0.183867
2905 1625 0.290869
6861 6319 0.267381
27137 22330 0.461401
13989 29152 0.85145
15093 16364 0.264375
12175 14298 0.0419105
12706 7463 0.210346
29395 28349 0.13219
5622 11508 0.647862
21911 14527 0.0538642
29250 12115 0.970447
823 8815 0.136742
13943 18614 0.218296
1019 18963 0.952353
12857 19635 0.514808
30949 1898 0.936005
17733 4233 0.757639
10121 10848 0.41719
25170 30168 0.626225
8376 8948 0.48721
19730 21491 0.871803
25476 2914 0.540022
12612 23777 0.38127
5983 21221 0.0807069
20771 26304 0.664217
19536 2176 0.9275
7644 13617 0.808233
1413 26714 0.168914
27778 20764 0.472831
6206 5828 0.233762
5126 31823 0.410847
5742 7023 0.969202
28851 5057 0.925402
20797 22795 0.838674
28531 27867 0.689245
7944 21190 0.444237
20282 21549 0.212613
17612 15547 0.760834
9525 20046 0.379052
19197 17119 0.918654
6501 8342 0.564454
18293 27657 0.0601869
12713 24669 0.755807
22960 9919 0.423408
10447 16706 0.629534
28077 24965 0.0851807
21984 19156 0.788145
3857 1843 0.52927
7676 27480 0.412002
20343 5908 0.709878
4153 10556 0.284451
9072 30073 0.589872
29049 18660 0.343907
30130 23323 0.18978
24225 3396 0.0136669
23574 2869 0.910017
19268 16717 0.565696
10877 25685 0.859629
7921 30016 0.159445
20537 18127 0.100368
9288 29736 0.148006
22504 7346 0.895863
1920 31227 0.710657
17531 18471 0.48148
3146 15185 0.667232
18522 4574 0.393924
6865 32590 0.862512
26216 11820 0.929796
18580 29466 0.701508
4905 28696 0.364911
6958 21574 0.777814
23357 5195 0.945223
11048 18097 0.172782
6225 705 0.129041
19618 3237 0.462708
4278 13231 0.774128
3632 26301 0.0127313
26394 27062 0.169529
15359 29144 0.0420754
9860 9717 0.0617672
29439 11464 0.646755
4386 20945 0.281354
23940 31031 0.390111
26580 384 0.822137
22872 5275 0.596707
21041 10733 0.261821
7195 4783 0.612192
6522 32433 0.405552
32641 32647 0.78515
473 19312 0.793903
14673 32487 0.336253
22447 355 0.229659
2012 1851 0.319902
17235 26899 0.530081
21120 25467 0.069379
3225 10298 0.0473861
32503 30342 0.852935
20273 10116 0.204942
26320 16694 0.0746426
23371 10098 0.481878
10349 6340 0.401078
24979 30849 0.48561
26938 28217 0.547941
25333 13369 0.777083
32160 7290 0.562955
9263 8534 0.409672
6488 26339 0.880527
12384 24107 0.458605
14347 26743 0.363955
21521 14300 0.775191
19007 31375 0.42289
10586 17810 0.926901
32704 1034 0.0548191
17682 1705 0.507272
8706 11629 0.247374
16339 6487 0.397215
11412 11551 0.251091
15843 5425 0.49935
20704 11675 0.165166
8243 30739 0.324391
6209 14999 0.287524
6180 29082 0.619755
17189 9977 0.00378419
12157 19518 0.302178
25432 14201 0.542799
28621 28268 0.546056
32730 18499 0.0272156
12093 16584 0.557072
1920 29130 0.949362
6998 16063 0.937072
20682 2990 0.475109
18806 18018 0.912083
16071 24460 0.434136
22466 7577 0.459233
11081 24822 0.745599
17128 27094 0.100537
29925 399 0.843425
25564 24104 0.481611
29552 19806 0.883109
26970 4504 0.462853
9186 22428 0.825609
15985 19359 0.10393
10595 259 0.238978
18756 31231 0.50978
16376 11016 0.810544
9126 27103 0.765451
19123 17353 0.458844
15667 29772 0.664814
2849 13241 0.731558
15157 8616 0.460498
460 32658 0.182988
14255 23388 0.31029
24209 24313 0.752809
17557 29326 0.936673
17660 6236 0.469069
21333 19601 0.877593
8239 23325 0.839299
11301 7687 0.198959
31065 16956 0.987933
1681 4394 0.397215
18031 32044 0.423328
27493 19101 0.845097
8208 31235 0.909248
23593 925 0.968711
14456 11985 0.275197
8377 20422 0.234889
15441 22359 0.500819
10674 18427 0.600893
13105 14899 0.235009
29857 22594 0.840979
28160 9902 0.723862
25076 20481 0.290789
31291 7721 0.302887
9833 12044 0.299059
8417 8732 0.0234899
21111 2715 0.166161
22309 6461 0.017341
31902 28666 0.177442
4819 18729 0.104026
10326 2978 0.244529
14310 22743 0.255622
7227 17405 0.939294
4385 7374 0.463521
13387 2993 0.45784
11122 20753 0.0794749
15488 26054 0.881886
16897 11739 0.880062
30965 4376 0.422869
9231 15023 0.268973
20084 2421 0.771079
30432 23583 0.763727
3220 18096 0.728343
23856 24265 0.107739
15838 11713 0.234395
15691 29487 0.851928
6825 14909 0.0019353
31999 23210 0.417359
16109 9805 0.353946
29800 19942 0.563618
7159 24135 0.184414
6526 7810 0.307041
28016 14753 0.599972
28395 28797 0.589525
5692 9372 0.659762
31100 9916 0.525614
26475 8892 0.351149
163 26626 0.129449
16006 24007 0.27334
6605 29541 0.920819
24327 10150 0.401227
30417 12094 0.211915
3200 6907 0.374251
18405 27038 0.899237
5540 14494 0.507428
29869 28989 0.674514
16037 10430 0.474039
12042 8280 0.859251
30014 14306 0.257086
19718 12521 0.394391
32175 25328 0.760838
3301 32238 0.964944
32620 30492 0.0425705
26706 30641 0.522606
26729 21793 0.306285
24863 9786 0.580873
15931 3710 0.735817
22857 17990 0.0863224
6559 1886 0.341679
11448 17506 0.617436
5919 3728 0.020113
3255 7740 0.801341
3135 5498 0.377794
31714 3604 0.510251
21066 29616 0.530695
15570 4543 0.318908
7336 15023 0.0946813
15836 13550 0.963426
27452 3197 0.669924
28656 30515 0.868884
17303 23075 0.350229
9731 1278 0.0118104
17496 26428 0.281183
30450 27431 0.977087
16105 9306 0.713565
8007 26023 0.0723622
12976 16403 0.0620783
13051 23597 0.275731
32081 13719 0.272867
25977 30438 0.461582
21366 624 0.742392
31993 15276 0.877556
10000 540 0.258491
26182 3822 0.978981
9199 8817 0.233955
3142 10019 0.193078
21278 26120 0.402074
1223 10792 0.363491
16517 17576 0.485306
32621 10306 0.475124
26078 13794 0.576729
8975 5249 0.845234
15025 6994 0.621532
7584 1189 0.180275
28234 12908 0.287527
23873 18203 0.317751
12712 8361 0.153616
6971 11805 0.475302
24803 27565 0.669331
7936 6381 0.0766246
21743 4133 0.0684422
32651 5215 0.123524
17929 24650 0.764451
5909 18184 0.576219
16104 30566 0.422955
24549 16926 0.440378
12735 20852 0.204803
1399 22513 0.560697
9260 11504 0.306384
10435 1316 0.607959
28875 3639 0.455904
20383 15802 0.282105
2241 17372 0.0327923
11741 3478 0.898987
28476 13793 0.278578
17824 5140 0.0381865
5654 24584 0.324137
5318 19294 0.0553532
6503 13017 0.270608
15399 15987 0.712566
22387 12052 0.436565
13067 31385 0.975548
19795 26967 0.142199
26992 7068 0.238571
638 590 0.48928
24561 20164 0.0901733
1690 21697 0.571768
18976 509 0.132564
9632 17265 0.227364
5019 8997 0.634429
13305 15531 0.672178
3336 28237 0.784504
28493 8445 0.777674
21292 21619 0.425792
25834 14241 0.982633
9612 31040 0.295856
13876 1470 0.342932
27096 32263 0.912346
27046 10678 0.712276
31988 26565 0.840373
8866 20298 0.377898
29228 4176 0.761186
32470 30693 0.884914
30792 22173 0.458409
15741 25402 0.258322
768 4112 0.18167
3860 29383 0.0071186
21643 32315 0.906063
25751 23719 0.765519
18645 10948 0.705163
3397 8538 0.458713
8779 30081 0.430329
28624 17123 0.00900335
23488 4644 0.0524443
553 18898 0.625489
29277 17518 0.567506
31212 25743 0.623228
23356 21737 0.027363
2387 5215 0.642168
28010 12163 0.256192
8845 20741 0.442992
1271 32751 0.303368
852 318 0.659245
27887 15709 0.73032
4124 13934 0.346495
22917 11343 0.443727
27586 821 0.109903
3025 23562 0.618207
10088 32236 0.852763
805 28794 0.855996
14456 20785 0.11595
27634 15212 0.796843
19393 1879 0.992485
22651 27896 0.523765
31582 27248 0.418298
31562 5892 0.524397
3695 1542 0.805734
2381 3525 0.441663
2862 1822 0.968524
14930 29235 0.945672
28882 28843 0.645183
18452 7451 0.183348
22239 18608 0.0231999
251 18287 0.51282
23669 5685 0.976846
31758 27521 0.965741
16392 16584 0.859955
30076 14580 0.705654
5343 19165 0.334983
28768 17963 0.109021
18696 17225 0.913366
23042 5378 0.621553
5497 18567 0.365976
2895 1548 0.252476
4001 7480 0.349934
20771 18865 0.494151
26755 23319 0.279632
8244 12149 0.748479
8392 3210 0.403491
21665 30286 0.048192
22386 5442 0.0826626
13333 16300 0.974082
8942 11329 0.925353
26462 25619 0.948309
10419 6260 0.815967
27664 32762 0.60988
21392 762 0.667449
19224 6629 0.772275
28199 21789 0.30241
24757 29046 0.641737
24507 834 0.334426
19512 24762 0.143132
21633 27677 0.490796
21015 17715 0.490495
32404 9803 0.503061
6859 5204 0.963132
1821 3483 0.965067
18726 22356 0.940589
18773 31611 0.970333
25072 26057 0.273861
24981 30582 0.474519
19857 23711 0.953912
16525 32767 0.766641
22254 6118 0.714385
26485 16186 0.542528
27155 723 0.858013
484 31916 0.557628
24950 299 0.126558
18425 6483 0.673775
5610 7304 0.381893
7858 17730 0.536519
23065 1360 0.54345
24792 25626 0.429877
31119 2146 0.207356
21257 26099 0.614588
7612 10202 0.755807
27560 27311 0.340146
26531 443 0.895852
12289 7333 0.826693
2961 20500 0.479722
18296 4112 0.902465
4009 1870 0.0665225
5111 17846 0.755111
8457 16424 0.260317
26471 13001 0.622279
13641 14672 0.985533
10342 21630 0.31302
81 17689 0.661937
21990 27464 0.722973
20066 1113 0.808353
29201 7742 0.824259
22180 13992 0.820236
23929 12651 0.00868021
114 8222 0.942936
3357 32449 0.168754
4376 20392 0.497088
3754 10228 0.826272
32319 16110 0.937902
1391 17269 0.177754
13880 12678 0.714481
16712 28746 0.0161952
28750 30201 0.0884912
16800 29888 0.878022
17600 2257 0.548157
24283 4068 0.405431
11149 10372 0.637753
21096 2325 0.723383
8626 7484 0.490727
23124 8486 0.656193
21541 18827 0.33892
12933 8079 0.980659
29717 5434 0.794905
187 27121 0.820177
11571 2232 0.283428
18131 13976 0.650344
20870 19036 0.778764
15484 21158 0.898757
3573 21894 0.0738312
23966 15474 0.865783
18013 5640 0.968359
29030 25831 0.94418
26426 3036 0.857285
3449 1985 0.220952
28775 2966 0.182966
4979 18407 0.0998006
8411 294 0.85832
23691 17185 0.882691
13290 24644 0.77256
11244 28527 0.249179
23491 15170 0.959696
18631 2922 0.59812
29999 20833 0.517586
17942 20398 0.196143
8518 2822 0.0831626
8325 2044 0.735843
4248 25758 0.537426
18375 24867 0.281222
12351 2711 0.783559
19507 10577 0.673995
26980 12261 0.374437
21670 16947 0.714871
11018 320 0.500078
10599 2559 0.647862
13826 21315 0.75596
26151 26043 0.816276
15946 28863 0.694209
5343 9754 0.155374
23075 11275 0.494457
918 1100 0.961141
11107 23619 0.170653
6238 24481 0.292815
23870 9438 0.222632
19008 15139 0.363649
29706 20992 0.332044
28796 28558 0.947712
24365 25664 0.866502
9164 6478 0.512375
15603 21607 0.828602
17193 17483 0.990284
5721 18673 0.3707
24734 44 0.928321
16880 27132 0.296561
5712 22645 0.661321
32490 8743 0.110573
3709 14846 0.380875
27350 3680 0.594666
21694 27260 0.0955463
4100 22774 0.620894
3128 19556 0.548636
5535 812 0.354559
22216 30614 0.377158
7063 23437 0.0285438
6179 14844 0.684769
22220 27938 0.155862
18820 29209 0.582221
12487 18459 0.593218
32218 181 0.989546
25689 29908 0.889225
29212 4622 0.095364
21286 24657 0.978019
25839 31049 0.0137882
7719 7790 0.614436
18341 4786 0.43258
18226 11542 0.915457
25620 29217 0.662633
25539 31416 0.0243356
19524 31410 0.534387
16798 29819 0.519771
10065 19917 0.373939
23577 2434 0.329049
19237 22178 0.887086
4148 9170 0.909947
8197 7828 0.948258
3735 20483 0.329033
320 9612 0.283375
1711 19932 0.738403
7322 7946 0.83918
15033 16581 0.26478
9446 29811 0.998901
17501 12180 0.467236
4892 9973 0.442633
1136 22021 0.797533
31593 9133 0.624964
4332 23870 0.5485
4782 16762 0.234278
14660 3717 0.829475
8239 22111 0.372034
25445 31281 0.893553
5143 30479 0.83954
23510 15464 0.260115
15845 28444 0.821097
30722 15322 0.544761
27945 32579 0.984926
2956 32582 0.734944
12129 26730 0.263788
26874 30047 0.0368564
3503 23634 0.585195
27213 30668 0.628984
21102 17917 0.213317
31367 13753 0.404223
28210 12361 0.529159
989 2508 0.355908
15453 1495 0.216514
21317 16121 0.793391
23733 32379 0.991103
18135 16480 0.956568
17461 31527 0.624579
18451 17143 0.316266
16839 30610 0.551996
9595 18473 0.0452406
3862 31385 0.591613
22458 23310 0.279498
963 27481 0.0939279
8993 22617 0.0615395
8547 31017 0.100921
28359 16816 0.705396
28334 20813 0.659531
1249 17160 0.922398
9791 22327 0.741094
20357 13499 0.0788541
16053 31179 0.0266981
1438 23120 0.796609
19111 10235 0.654951
12628 2065 0.466254
8413 7922 0.690837
5268 6815 0.918908
19609 21267 0.270341
4498 6468 0.510144
14761 6386 0.85695
19316 6092 0.791207
27006 26352 0.369205
7952 24211 0.770593
1485 17159 0.288992
27829 17872 0.0766246
30093 30288 0.167846
30740 19422 0.932427
30876 24669 0.143182
27380 11681 0.186766
5785 11301 0.462472
3282 17152 0.348665
15888 26804 0.89029
25928 16001 0.251536
29247 32106 0.0988159
10111 1003 0.522767
17630 23101 0.441282
17579 19530 0.837004
1811 19511 0.522727
9511 7847 0.75357
24632 5787 0.546515
13296 23103 0.452317
19756 26328 0.0151873
2649 26337 0.439129
20357 13082 0.0955883
134 19794 0.0471724
21454 798 0.428581
6962 31422 0.661338
19266 18513 0.576115
8198 26800 0.639024
4850 18063 0.0285438
15987 28862 0.848964
14217 30210 0.620032
31337 29861 0.487927
3425 19864 0.39164
6293 29331 0.0812343
4727 13435 0.832681
27522 8671 0.135132
17655 12402 0.692025
29033 15519 0.454672
29186 20694 0.854154
29733 3012 0.400695
3651 19139 0.506073
17116 29202 0.135467
5096 18984 0.69918
26402 30807 0.997943
3104 2414 0.981016
30257 27415 0.0162552
14054 13839 0.0778192
7940 22412 0.129263
5827 22548 0.661564
28883 16658 0.797876
1608 20374 0.94461
28035 17428 0.205188
3600 14846 0.654524
24977 28234 0.465186
9515 15847 0.572167
29396 14638 0.140563
24399 12540 0.0201678
31457 12345 0.646021
24568 8361 0.0813019
15147 25721 0.538714
14897 19904 0.188338
28236 20106 0.814553
14611 10922 0.861364
31649 5527 0.352153
19444 24451 0.343618
11651 23390 0.14327
27800 25394 0.0740873
32491 30629 0.839853
22268 18575 0.177316
16239 37 0.079096
28114 21840 0.147338
3897 17353 0.313366
23655 1559 0.855575
22332 14365 0.636374
3161 13227 0.0871043
11788 9006 0.412855
5226 17303 0.722637
2015 17142 0.199929
14562 24480 0.177029
24968 9566 0.167213
20055 12493 0.709051
28905 23391 0.780347
6488 27232 0.516388
12862 24688 0.182303
14995 29873 0.694441
2381 8053 0.32802
12681 8768 0.768163
30268 29418 0.977298
19852 14841 0.808283
30136 6732 0.919882
22340 9733 0.380494
9952 8234 0.212408
3046 1267 0.538881
27069 32186 0.585134
13491 23246 0.670778
576 5237 0.221316
4434 31703 0.060512
24060 20469 0.115255
16323 5433 0.451158
21052 20734 0.292831
22535 9204 0.0125673
22766 21458 0.0152646
3542 24705 0.979938
19960 26530 0.380764
7983 15619 0.991762
10021 27600 0.992591
5944 21868 0.652257
5191 15882 0.757986
31210 22185 0.192227
29860 6288 0.342958
3809 26576 0.354851
5304 22592 0.0580044
26157 467 0.54997
17330 15211 0.521204
25381 3024 0.964005
27849 27939 0.25772
6956 26200 0.292014
9244 1733 0.229562
29697 26435 0.332644
15883 17482 0.648128
22941 27145 0.838755
21985 13756 0.69546
14281 32421 0.452317
12 5239 0.623804
9447 20991 0.298882
17457 26106 0.160755
29446 3571 0.612192
14532 22882 0.35275
11515 32017 0.886132
24734 4996 0.928072
8085 1821 0.0378438
25922 11826 0.217378
21479 19800 0.206604
20747 10095 0.196024
29003 25245 0.148775
18132 3632 0.332476
21084 30548 0.137785
17918 4886 0.739681
26395 465 0.630509
8779 24689 0.195455
13863 22160 0.611298
1849 7973 0.00630335
20281 16735 0.807424
14472 228 0.457214
31754 1243 0.0220961
16481 14678 0.548037
7497 5955 0.910392
14350 4146 0.600669
13869 23013 0.974447
24497 25374 0.334315
10371 11952 0.514623
11606 21846 0.00368122
31957 31305 0.436207
23171 12310 0.652547
354 14415 0.210999
20996 29731 0.129989
13563 19602 0.848121
7478 9354 0.757507
21860 2108 0.990411
31559 23551 0.798352
14897 27691 0.553073
4528 10643 0.742239
26733 11247 0.516502
28853 23772 0.739895
32747 8548 0.308943
7865 4518 0.094804
14613 28465 0.381416
26485 11492 0.0631716
18207 22580 0.832565
8477 26240 0.325465
19312 1495 0.818326
21597 12921 0.616476
11682 24621 0.843347
13133 1451 0.569029
32758 20976 0.631832
23375 2529 0.0742252
2135 5756 0.205373
12089 12637 0.99195
19821 14739 0.739543
30238 4364 0.780698
15929 31590 0.0231339
135 641 0.460859
19703 27659 0.0912536
18744 31892 0.497096
15541 737 0.213659
4634 20519 0.783989
6219 17237 0.679402
24407 11080 0.860761
25018 1303 0.762109
4931 7165 0.184477
25498 32533 0.0652411
21166 31885 0.250383
27762 13534 0.373518
30215 23801 0.326997
19884 16994 0.987015
15794 20692 0.428925
32629 27310 0.927592
23419 30606 0.0391942
28182 31558 0.614717
16145 25390 0.250329
23559 25592 0.927203
17686 16170 0.0772441
24306 31010 0.776015
10635 106 0.83954
3420 479 0.283112
22599 1244 0.505928
31133 19542 0.431787
7460 7855 0.437293
934 30203 0.572995
7318 9181 0.795468
32412 19122 0.15439
30825 5909 0.560751
29403 28675 0.118031
13069 10371 0.816129
15888 6428 0.238361
22845 11058 0.754935
28407 9591 0.233474
13646 7421 0.53299
9213 10070 0.516096
29400 13644 0.567778
8335 27556 0.864037
26694 16570 0.544
28346 3764 0.397297
12521 11445 0.492668
13756 23782 0.173496
30747 5083 0.300794
10246 6009 0.328372
6639 11390 0.749442
622 3712 0.936041
24314 21674 0.792328
32677 9621 0.227575
24100 9652 0.883718
13953 21195 0.211239
7948 26452 0.287529
19609 27554 0.947038
25761 28241 0.439129
8469 32235 0.606549
12253 15882 0.44476
6315 24759 0.0757505
7832 9578 0.577895
17618 20942 0.971515
12601 5158 0.908078
16994 4963 0.691675
21598 898 0.904348
18996 13812 0.99874
2248 3895 0.584998
27106 4135 0.257871
24876 1401 0.0857878
10099 1383 0.241931
15685 113 0.934765
5816 489 0.164563
29528 2556 0.381836
6556 27508 0.825601
30787 28754 0.738203
10904 24697 0.479908
16729 8493 0.433448
8848 5062 0.287989
9837 7542 0.890032
6493 9448 0.75596
23149 13868 0.569118
7061 14401 0.0155559
11314 32278 0.694619
18964 32702 0.633329
8400 6407 0.700496
10566 4441 0.0301392
20609 23441 0.879337
7883 2707 0.42977
10693 13546 0.649083
24602 11879 0.518219
29980 24436 0.0375278
11445 8733 0.280511
13980 21380 0.480909
1103 17484 0.987007
21259 25781 0.167225
3383 10472 0.455257
7150 15411 0.0563275
12202 23264 0.205154
5382 20837 0.182895
19220 9633 0.900246
28513 21746 0.352636
20814 23532 0.678668
23283 2937 0.0429172
10901 7659 0.806338
18241 4901 0.118809
27129 14067 0.583939
7753 22782 0.25263
28885 4369 0.831128
32740 15885 0.308276
11857 21614 0.0527278
3136 6583 0.753062
16522 2494 0.603862
6278 1376 0.551597
29212 6043 0.756188
16400 18401 0.41001
5535 354 0.538153
16005 29883 0.450398
4886 4176 0.195083
22595 11051 0.285893
28442 8868 0.91015
11254 6215 0.0520409
21777 26126 0.967223
5515 13635 0.02818
22283 29413 0.981412
4166 19460 0.538978
4446 9422 0.783372
27490 28092 0.551454
20156 9546 0.707532
13470 23358 0.168227
11440 17871 0.195818
1740 7799 0.581716
31761 22701 0.455278
23897 27661 0.0771795
20639 24649 0.259596
27696 20742 0.911179
16187 12084 0.717614
25793 18351 0.122667
4140 11948 0.471758
9430 28705 0.209442
8442 645 0.624962
23140 26236 0.852897
28437 15322 0.160386
22610 28728 0.0665559
24376 20084 0.53889
9137 8051 0.617486
8030 27917 0.187119
2044 5712 0.0575127
19784 18217 0.123266
24046 13511 0.515296
29549 4128 0.646757
9259 8102 0.443953
19701 22648 0.692715
11332 15939 0.814041
11383 15809 0.273953
19883 11227 0.254281
19390 10964 0.71089
10822 16272 0.196084
32096 1367 0.196926
7509 20474 0.461261
1755 31576 0.74699
19760 28288 0.440308
3824 9886 0.559566
12240 26547 0.381516
7060 4439 0.994296
753 246 0.871637
7592 23599 0.402148
7362 27575 0.665327
5906 7380 0.665133
11560 11278 0.268128
18036 29349 0.68725
14478 26316 0.671319
19863 29721 0.827704
29303 23973 0.310317
32645 28142 0.676892
3742 1073 0.632753
2913 28608 0.158777
5055 19481 0.658246
30441 21514 0.841305
28572 28780 0.931444
10287 8137 0.246169
16389 238 0.0421369
32261 23399 0.87792
20239 26164 0.947175
25730 32332 0.549594
16704 25942 0.220673
23985 9757 0.742749
7174 18423 0.924529
4879 18221 0.52978
23212 24202 0.221316
11355 8553 0.899508
25977 18192 0.68212
23680 28341 0.1742
14174 27217 0.877342
132 20842 0.109068
288 23372 0.752659
22772 1470 0.111462
31592 23281 0.971515
27233 132 0.787959
27954 31007 0.0550897
30004 14387 0.35585
9131 11771 0.250032
13068 25765 0.544761
30516 22649 0.552436
19968 29160 0.591764
19694 2195 0.492277
352 18818 0.112247
25302 13928 0.699058
31373 11310 0.0910756
932 28464 0.195128
5119 26413 0.934211
10507 2881 0.581212
29078 3015 0.950977
8366 4823 0.387962
26091 6372 0.237476
13596 21430 0.48622
27749 26449 0.057025
1881 25799 0.218365
19235 24038 0.667698
10613 15795 0.163352
6386 21765 0.240215
12183 28017 0.195158
29916 5564 0.132394
26185 10532 0.18356
22338 4258 0.480533
28265 11901 0.65088
11491 21534 0.651552
24785 16413 0.347969
12769 10230 0.64108
28644 26084 0.214122
22552 2989 0.174441
6647 6940 0.414051
15942 22448 0.112059
21566 5153 0.272762
29684 3356 0.735868
13133 3341 0.189717
22815 31541 0.191593
28905 20881 0.88001
7612 32394 0.360518
31445 5202 0.189949
5273 20550 0.737815
1975 319 0.924093
11525 2728 0.698112
31258 24013 0.0806201
11545 12592 0.850544
10912 22278 0.937902
11885 31402 0.646798
10461 18629 0.149837
23223 16095 0.0124902
14268 2798 0.833238
30820 30308 0.215716
2439 725 0.369246
22496 12730 0.790159
12735 25709 0.0423799
3452 11162 0.846805
6514 29393 0.765797
31703 31821 0.0798945
7248 20526 0.376561
27397 8015 0.68725
25417 11531 0.791307
2783 18435 0.836608
10855 21233 0.785319
10886 9255 0.288463
1010 3264 0.165414
8648 20594 0.0432671
26371 3467 0.771987
14652 3899 0.223476
19677 18468 0.199617
17899 20109 0.0811598
3623 5170 0.163476
23156 4405 0.201865
3907 30383 0.95804
21343 28880 0.821789
27372 2771 0.305056
3815 24845 0.834562
11363 32298 0.280977
22230 5664 0.695557
32429 1813 0.274693
28213 24242 0.337949
5037 7535 0.703839
27378 13761 0.704203
3334 3303 0.254207
3542 17376 0.90635
12802 11964 0.742348
15778 17098 0.736409
21995 11606 0.581478
29709 1814 0.935154
18682 12413 0.695934
18086 16987 0.38959
28669 10218 0.0204776
26687 1075 0.461656
5093 1756 0.201439
16841 22367 0.508769
8241 3301 0.416912
27197 16014 0.943678
24653 19268 0.571717
28255 31259 0.986761
31329 32567 0.677499
1589 5328 0.845079
32649 1617 0.521575
3086 21324 0.975046
7067 18427 0.474707
13827 28348 0.371112
22798 8136 0.97011
4322 29205 0.902143
7959 10095 0.290639
27971 10841 0.211681
7927 1443 0.582069
8365 20367 0.315476
6299 23547 0.319637
20889 28681 0.670962
22022 3361 0.997481
25807 17155 0.231636
28618 6555 0.100841
7952 17220 0.582085
6346 31685 0.64308
19268 25486 0.510144
28573 14452 0.207436
13338 9614 0.701092
9150 3365 0.306617
847 13440 0.401616
23142 30384 0.478292
30907 10489 0.582145
20467 17168 0.419152
19825 13211 0.441385
25613 29083 0.350576
22259 22119 0.374779
30560 21302 0.253148
1692 1230 0.735617
29441 11117 0.854969
311 16660 0.959697
26923 27799 0.568094
13518 11306 0.715063
3167 4368 0.378418
19115 9067 0.0682825
10417 31262 0.511579
25253 18226 0.920944
5403 993 0.0924952
6928 20071 0.559274
18895 4942 0.396641
26363 27822 0.509723
29905 20599 0.630205
10980 30488 0.991521
13954 32764 0.326276
29891 5352 0.416891
10023 31817 0.343881
1148 1458 0.226697
27717 1461 0.491069
12139 8631 0.393511
2138 19738 0.411411
25786 31020 0.364411
10269 6154 0.254616
21290 1226 0.170694
25295 30926 0.548631
31988 25027 0.120357
18678 325 0.21301
27059 21466 0.0428177
3657 28088 0.676987
15298 20166 0.881886
2024 9724 0.894417
19755 21538 0.768904
26982 11165 0.0302955
18945 25378 0.646386
20563 25022 0.330634
25656 2890 0.409111
7028 24793 0.359198
12147 9874 0.346043
13389 3312 0.761729
26827 26529 0.0717083
22219 9602 0.93147
24708 28392 0.0479602
11642 7819 0.544939
20328 11879 0.605889
20826 29458 0.769272
9310 4129 0.57946
29439 18389 0.0136722
30055 16190 0.566336
6601 23853 0.614148
4820 10172 0.863911
13208 17122 0.898642
7199 21321 0.974833
16398 28582 0.267659
23434 18378 0.566948
31482 12189 0.648936
28864 18965 0.760654
10548 31054 0.901978
30205 18289 0.723948
23188 8352 0.25892
21523 1863 0.292911
25047 19393 0.977472
21196 26127 0.187299
28291 22338 0.947966
8372 32499 0.0990457
25683 527 0.556066
10131 9819 0.394267
6246 24165 0.888943
19173 7130 0.0644164
30682 5429 0.748173
14330 26498 0.745599
27634 30704 0.698578
8633 4995 0.301682
29856 6195 0.774174
13514 19944 0.296905
15246 24855 0.914308
5630 28625 0.790965
30737 13116 0.907129
14754 15045 0.602364
17220 11203 0.0705527
29427 15925 0.509817
7711 29005 0.0845624
28546 9534 0.128948
31279 3777 0.491087
12520 13261 0.582145
19596 22840 0.0557499
20293 11344 0.00802258
8279 5914 0.600402
9977 11377 0.696735
6377 23381 0.77161
9909 4259 0.769151
11499 26052 0.408763
3288 19359 0.389193
9861 22226 0.748747
25741 24742 0.980001
8280 29293 0.880351
22409 19503 0.0694566
3820 12229 0.802021
9132 28125 0.0865252
22777 16164 0.497088
16673 25909 0.103048
28038 31855 0.747299
15823 15666 0.800913
10204 29008 0.687272
15519 30020 0.459655
21479 21204 0.108195
17677 24118 0.340146
2532 19842 0.242716
30047 19202 0.339081
2294 23642 0.258469
3966 1834 0.0166046
18721 29082 0.907437
15764 11436 0.165698
15474 28733 0.0531025
6180 22190 0.924504
14631 13482 0.774389
4873 15602 0.0912536
8126 3582 0.762451
12589 25289 0.819274
4170 31006 0.397349
1771 10238 0.43318
30577 3524 0.666113
17068 11485 0.403691
24328 26071 0.882517
6186 20129 0.024919
15525 32741 0.27489
6712 16255 0.996056
4171 6589 0.0600429
14765 27661 0.315932
13632 4583 0.331107
23194 10203 0.913067
9603 13232 0.349828
17309 31980 0.339111
24528 18177 0.0676597
362 13787 0.536453
9318 16699 0.790649
4401 12825 0.0041753
2184 5018 0.993901
25376 24470 0.35791
887 32192 0.544242
14318 23614 0.594096
31641 5170 0.599026
19056 3547 0.556144
16428 947 0.440381
25190 5304 0.667602
22479 12959 0.676471
17219 29104 0.434876
30001 18242 0.437412
6700 14219 0.79421
8029 6837 0.136458
17192 21667 0.742007
3417 18228 0.602839
2286 9759 0.696918
17799 9245 0.0193387
19393 32538 0.733289
1836 16671 0.757012
15853 29051 0.453814
15132 10877 0.304003
26483 6315 0.887618
3047 18678 0.296779
30360 903 0.860081
5543 9082 0.771193
5136 617 0.355203
8550 13123 0.374663
1146 19028 0.760829
22139 13210 0.782404
24348 4691 0.850444
1109 20072 0.0105181
10637 24359 0.667784
904 28730 0.609035
19942 14218 0.070948
18915 24473 0.498118
16401 11099 0.714376
24240 28301 0.227873
32371 5435 0.540512
18919 20014 0.182403
9079 25921 0.203371
30732 21083 0.461632
28501 7129 0.976656
20991 15866 0.465038
28436 28797 0.327744
3349 22555 0.702286
16203 17487 0.936811
32088 2596 0.457442
8271 12562 0.330838
3795 10257 0.468833
29822 1080 0.114233
28638 16172 0.739207
18227 18278 0.335411
4851 29093 0.482074
1956 7252 0.65248
14244 25349 0.229057
19985 11380 0.13456
24735 26998 0.0308311
8789 23035 0.716157
24964 1983 0.351156
26901 23036 0.89503
15526 6050 0.230296
32529 18486 0.183107
27596 3957 0.317175
22561 18557 0.106307
3784 2235 0.408674
8388 12881 0.54375
28311 4183 0.207384
23409 24556 0.211077
32591 14397 0.101304
13748 14896 0.963708
3644 27518 0.146164
7004 6322 0.651685
24884 2543 0.170467
11528 28012 0.29831
20869 2857 0.547015
4852 25321 0.0411784
8132 32160 0.864061
8297 18629 0.28515
371 13100 0.579433
29989 25976 0.598639
12642 32174 0.486813
1787 10695 0.635923
22350 9480 0.20509
16268 609 0.172642
12466 2336 0.624363
9598 24739 0.582221
31406 20364 0.96744
32353 2671 0.527329
30517 10208 0.935481
18270 22248 0.319983
4187 8643 0.228698
5039 13915 0.52657
31042 26764 0.25207
19194 15952 0.888111
292 27653 0.476983
13463 9246 0.810898
13676 23934 0.914585
1999 12560 0.995568
9986 30163 0.541282
25394 21664 0.891894
22032 17501 0.771964
9031 4205 0.357379
32185 23867 0.68079
11662 19112 0.559466
21788 1022 0.55646
10721 32327 0.430903
28608 1742 0.0164154
17069 25397 0.386223
8939 3852 0.814993
19087 20926 0.85891
11560 933 0.557032
18977 9443 0.0158415
13527 1254 0.170999
7553 7251 0.158261
27830 8952 0.0712873
11607 4981 0.553251
29379 18108 0.619277
17010 11063 0.96691
3534 25253 0.497093
13093 14288 0.877978
19326 10782 0.759176
9053 3555 0.482398
18115 10723 0.558616
23969 1125 0.971609
27346 7091 0.178747
5210 15239 0.97042
31629 31550 0.398517
3553 7428 0.918004
29711 6149 0.132447
2055 2949 0.491627
22187 22414 0.914172
7638 19194 0.93204
30313 19625 0.500078
23577 32232 0.747436
3814 8388 0.0924066
1335 25221 0.820417
8679 12064 0.648641
16477 463 0.697827
12998 18752 0.794287
5629 12047 0.443056
26518 1633 0.0818324
15438 8318 0.742972
4190 6216 0.854074
12035 1610 0.96761
31056 25456 0.182838
23566 12030 0.612266
2459 4631 0.507377
14509 20444 0.760705
31341 5757 0.855107
21944 12545 0.479722
16955 12268 0.371564
5496 24075 0.0365423
13458 24089 0.0382582
11960 8767 0.922002
19206 500 0.584686
18687 18988 0.488359
161 13138 0.169371
13508 15318 0.634838
27959 8952 0.141073
23948 441 0.490795
4453 23404 0.50517
11275 3001 0.808075
32404 3230 0.498997
16423 23841 0.925782
15622 22404 0.893331
32462 25808 0.469709
7656 18348 0.937008
25629 15940 0.387766
18432 26167 0.303296
13732 11191 0.117267
22913 14019 0.244412
11519 3058 0.874481
14457 2489 0.0400857
25683 4459 0.611887
5835 32639 0.302984
22056 21546 0.569748
29043 18110 0.788262
31754 26787 0.993914
2736 1507 0.660158
1788 4216 0.220407
11719 28825 0.69337
26352 30230 0.614312
14704 17066 0.745559
11708 2325 0.12549
15002 21379 0.610921
10512 22191 0.438027
27827 18245 0.919559
2129 28181 0.737152
8305 14264 0.288525
585 2520 0.974678
21120 20791 0.249572
25229 11876 0.0897043
13895 32143 0.749817
11005 17834 0.378521
2059 29429 0.315747
14997 29976 0.115673
26120 6630 0.464978
13402 5749 0.788299
26164 26031 0.214459
13503 19347 0.423798
8092 6577 0.906305
11660 14723 0.95592
18003 21066 0.797536
29017 30796 0.630708
17479 29486 0.155859
27809 18242 0.577783
13867 21366 0.938629
29576 18433 0.90995
9942 4344 0.385893
29727 15315 0.796965
1498 3109 0.869009
21602 30503 0.364496
13479 7023 0.024919
6612 18670 0.86136
25125 1162 0.460814
5322 14378 0.691979
23141 3817 0.275648
26614 13407 0.756004
19621 20743 0.843455
13236 141 0.342958
16605 29280 0.245958
29737 10201 0.985871
2334 3897 0.644472
22680 29272 0.578621
23781 9942 0.435459
17914 3203 0.376176
18592 1926 0.532352
30818 21811 0.453727
8183 28146 0.702084
16526 17750 0.511759
6510 5396 0.17755
24111 16746 0.275549
10084 8593 0.0799809
10322 5047 0.891787
15234 16021 0.762122
15922 9675 0.841625
3749 20429 0.180807
31732 26766 0.836998
17745 17669 0.99259
10122 16098 0.173865
19980 22046 0.661038
24285 2751 0.377281
4410 24682 0.106273
16252 21133 0.719066
13692 25563 0.0578181
22104 5577 0.744586
12915 8825 0.323634
20268 27414 0.988764
27215 22962 0.175566
14333 19271 0.378744
15030 5358 0.221043
2796 29702 0.384532
14495 22164 0.947173
6692 18125 0.797196
21441 7942 0.508145
11565 20753 0.0511536
18489 30106 0.797407
27968 768 0.482657
27998 5734 0.741112
24601 28001 0.181776
1971 29998 0.660931
9388 13457 0.0159234
7333 2639 0.280512
9260 24984 0.864394
19735 14219 0.209903
27046 685 0.556055
6936 12534 0.128748
19407 24436 0.286727
16069 29257 0.214822
32460 3747 0.388999
27097 12049 0.89299
28285 23515 0.458818
26786 27279 0.253734
24926 17940 0.446417
22203 1478 0.630159
2541 4273 0.54504
13433 3024 0.796241
27995 27170 0.635034
29731 7541 0.866004
31438 28168 0.604028
23649 24891 0.47224
22402 10108 0.132447
9709 29351 0.961934
10525 4125 0.452544
29785 30098 0.779644
18203 17952 0.934329
27369 24270 0.399139
16376 8426 0.448026
20162 15000 0.442294
24858 1563 0.803302
25277 23294 0.569818
28654 27233 0.243713
4247 16661 0.898517
12756 13621 0.918781
7280 22864 0.823988
7770 15141 0.0465438
25441 441 0.741315
11977 5390 0.626446
18345 11308 0.665003
29897 19007 0.239239
27436 9740 0.164454
23350 16645 0.615073
10653 32223 0.167002
19263 30809 0.295855
13107 13756 0.40588
24791 21989 0.623863
7133 18337 0.721524
5087 851 0.540069
16882 1000 0.368927
26998 22716 0.0620175
4117 13765 0.957706
31890 26585 0.7217
23578 10675 0.395675
9529 17781 0.971292
30516 22593 0.00971351
2152 30263 0.81114
2422 14959 0.520324
16273 11980 0.80011
15024 581 0.527564
4229 4103 0.546298
10325 17995 0.921037
21433 6713 0.851409
12311 14697 0.194828
7106 29190 0.0326058
24594 18112 0.810039
25118 12666 0.0118058
16718 1173 0.692315
16492 27879 0.877593
5144 16891 0.639256
14046 6356 0.0340637
30373 17358 0.211651
29331 30620 0.148255
4751 18757 0.787851
25293 3758 0.114485
17059 23395 0.653829
15345 10244 0.916031
12595 32233 0.256365
18934 19412 0.0479602
25393 10578 0.985276
22558 32205 0.203116
6762 6520 0.791956
1096 4284 0.92519
2319 20890 0.730502
22777 12678 0.802884
16897 27772 0.586462
13907 2198 0.0588971
5592 21 0.275218
16493 6855 0.390052
6327 31864 0.686221
7495 10982 0.717705
19686 1049 0.782146
28264 22018 0.242002
9029 26774 0.219305
15843 27350 0.499164
26855 3161 0.659271
4851 30834 0.478073
30743 8855 0.270954
24634 6475 0.32222
29650 22483 0.178308
29116 29095 0.283225
31575 29985 0.607999
18355 21406 0.827793
16267 19680 0.81209
2579 31020 0.178019
8127 6213 0.574492
18588 510 0.356529
16439 17687 0.00951633
30095 27822 0.435017
1590 21325 0.739549
21821 30517 0.388596
12981 236 0.659512
26048 31794 0.864206
19945 32061 0.290921
5411 6238 0.0966497
23859 11623 0.770464
22226 32033 0.032674
29595 8967 0.315868
13641 19506 0.698693
17690 10132 0.644192
20977 4480 0.354293
20114 17533 0.698869
28002 13521 0.232604
32206 15840 0.867831
20862 15134 0.583643
11318 1015 0.898468
25976 2441 0.696174
6484 19937 0.664328
31983 13040 0.0720209
13325 11269 0.111326
27962 1481 0.817549
19532 28877 0.470843
15997 4678 0.305033
18034 19800 0.821914
25756 20831 0.665494
4058 19119 0.764019
3139 1331 0.816223
18544 6448 0.549353
7979 16562 0.294925
24628 25368 0.608237
16843 1655 0.389361
22584 10163 0.0841927
20229 20054 0.0981626
28733 4592 0.685641
6396 24194 0.928344
14740 8323 0.384623
22310 31055 0.271127
18973 5925 0.0624478
5025 15807 0.101427
23594 23482 0.918894
7927 29448 0.490781
6683 25031 0.161763
22391 20733 0.194176
29770 3788 0.808348
3856 17381 0.643815
24131 24230 0.178561
24676 22304 0.3675
4419 19089 0.617989
2359 23247 0.545202
19976 19624 0.346501
13471 15533 0.909207
32030 7544 0.589705
9248 8030 0.919814
12375 11346 0.718558
15380 18716 0.809337
23930 30517 0.353034
10499 32259 0.422282
1527 5056 0.618263
15970 29210 0.194563
28421 4511 0.827791
16302 13005 0.391816
4757 2160 0.776911
26887 22439 0.0448146
478 5138 0.944803
5116 26416 0.926236
30916 7783 0.046865
6048 31089 0.262089
24202 21241 0.77969
25548 28400 0.242211
19676 27333 0.995448
9949 29767 0.414654
23190 17101 0.380304
5826 8090 0.315214
5753 24481 0.240914
23940 26320 0.535956
19449 9750 0.611764
24698 24891 0.780518
19033 5407 0.41077
5032 4925 0.795468
27041 14421 0.92494
27420 32567 0.22023
31436 18107 0.634784
12614 21246 0.102181
9078 1597 0.654998
7745 8409 0.494559
6488 29784 0.227673
14961 17615 0.649769
30924 367 0.57401
5062 14214 0.606565
14702 20493 0.533952
32356 16726 0.458224
27446 7210 0.245643
32156 8376 0.260698
8457 18865 0.903307
30017 125 0.584469
10056 28150 0.931039
19271 15656 0.0609883
3792 24979 0.951607
418 12924 0.917025
30698 32542 0.875268
32213 4507 0.888264
29263 3211 0.578908
304 3921 0.491406
9002 9827 0.125903
16119 15038 0.7549
31410 9337 0.821098
31116 23787 0.854255
21001 12764 0.803815
22142 28541 0.363259
25780 22182 0.735272
10641 20995 0.827989
11107 269 0.315131
25694 19561 0.423267
6420 20711 0.396797
20881 4210 0.457516
17512 3992 0.845483
17718 19720 0.465599
25900 5065 0.76466
29683 17130 0.837595
6097 31109 0.31184
7631 2946 0.428214
29129 10643 0.48148
26080 18991 0.316292
28343 15102 0.23241
3498 319 0.386406
16760 13998 0.397953
20860 2466 0.121038
26066 14289 0.774837
24538 23038 0.697268
6515 23389 0.389742
16848 14868 0.977946
28386 9202 0.320307
28007 29977 0.325271
14917 2733 0.304843
16546 19870 0.94398
21715 27965 0.045582
11364 21155 0.00345758
19740 19387 0.247114
21693 21385 0.529166
19477 25463 0.632003
13794 29471 0.39196
26672 7623 0.453
29076 8310 0.314123
13150 22369 0.537248
11780 1210 0.850714
20678 1525 0.77161
4683 28147 0.0569111
512 16737 0.0324067
20564 13168 0.787977
26906 15002 0.635057
19379 14994 0.621443
23308 27421 0.23726
16552 13182 0.199929
31426 25805 0.842531
19747 11402 0.0601183
4725 23470 0.212611
30663 4655 0.264824
13603 9576 0.696735
22508 9755 0.057321
9358 24911 0.683471
30310 10397 0.407829
15924 10581 0.0877227
31023 29212 0.1152
30844 28983 0.837145
13612 27087 0.205314
32711 28325 0.915935
10807 5901 0.699394
24468 21321 0.610198
22764 20976 0.0100309
27501 8425 0.190438
7982 30769 0.716112
17309 34 0.130349
15030 831 0.369704
14528 15483 0.102185
8766 10966 0.476353
18828 7067 0.359224
22678 21653 0.203689
764 26925 0.436942
28353 12466 0.320568
21488 13945 0.570971
21168 12725 0.434563
28763 18622 0.593218
9655 9438 0.0513847
24515 31881 0.121698
644 7697 0.130422
32430 19075 0.535915
30559 1483 0.20132
26587 28123 0.856648
13640 2856 0.126166
27642 29507 0.0395943
5121 26939 0.506481
11322 9978 0.678657
19641 4305 0.00971351
27874 24954 0.122593
2850 17356 0.0705527
28011 6381 0.0454068
19555 23403 0.628477
13639 16304 0.600722
14559 12240 0.813869
24530 26289 0.977782
1810 6499 0.844233
10681 11031 0.52901
24947 20727 0.503587
28003 24750 0.939727
11957 21707 0.248223
20732 22130 0.867348
15511 28820 0.963206
28978 2216 0.398707
23800 8090 0.737904
20378 7066 0.782331
4800 5295 0.565094
25438 10518 0.881073
21664 24102 0.307713
5753 25106 0.199013
29280 31017 0.863313
31062 1737 0.0630172
22950 8723 0.326138
30722 18758 0.212287
6425 19475 0.110256
2774 320 0.24453
32287 3915 0.469434
8179 4266 0.314123
4008 28904 0.668706
31819 6868 0.0183786
27562 27059 0.0705352
28850 15701 0.195315
40 12456 0.769272
19086 18141 0.850805
27931 5068 0.871619
20929 14286 0.0173515
16910 4382 0.121197
24893 2042 0.54997
2767 14438 0.0842479
16135 28454 0.633151
14531 31432 0.523199
31949 21473 0.26435
16566 28727 0.28246
16150 17641 0.296633
7803 1399 0.739207
24115 24120 0.651706
3483 19285 0.297716
5621 9218 0.56627
29645 4332 0.14939
22554 7390 0.545715
16405 3721 0.735541
15884 25292 0.181439
9465 17094 0.639076
15884 8117 0.453769
5930 19401 0.513675
25845 3082 0.833675
18231 1503 0.717479
26218 11580 0.285934
22562 4020 0.701566
28632 17673 0.289209
25447 24592 0.387579
7688 14265 0.611443
27833 18753 0.0363805
14523 27363 0.707945
22630 3903 0.862518
25342 10502 0.641688
17730 28192 0.277555
264 10793 0.375218
1075 3205 0.38747
30653 8479 0.545135
577 2774 0.455278
18387 19058 0.13971
1455 4286 0.0827627
8137 9403 0.536712
1620 1676 0.207913
17798 18706 0.904902
18651 11040 0.359846
12802 5078 0.0325955
22672 17003 0.23366
29989 18149 0.0593967
27935 29734 0.0560495
1720 8857 0.628278
1563 15979 0.667784
17869 29238 0.641949
18129 19264 0.157422
23109 22696 0.328019
26792 31863 0.619081
17611 19736 0.220407
32200 15265 0.817398
17448 230 0.876963
27020 22827 0.421287
7601 13472 0.495087
2656 1583 0.789847
32080 6110 0.0419105
22019 27923 0.905246
4151 7104 0.331146
26228 16754 0.786584
11548 8330 0.193289
21519 15057 0.0271825
20930 1125 0.440062
7787 30758 0.649538
28034 25606 0.558896
19957 7758 0.542833
3091 15567 0.206935
12740 20007 0.977113
31251 3632 0.858559
23471 9372 0.219018
23630 8668 0.0679455
26311 2827 0.315676
5217 20521 0.0513693
10290 26141 0.516257
22733 31815 0.281176
8008 10090 0.567706
2050 14954 0.30423
902 22697 0.428214
11005 20168 0.270554
6168 21697 0.227406
20726 20625 0.754084
17848 11645 0.654817
24799 14813 0.835334
14369 1534 0.875218
20332 6752 0.613874
29089 24742 0.567914
5154 19001 0.266341
20008 3563 0.144455
7102 15718 0.293764
27914 5776 0.329875
24616 17091 0.101238
66 20464 0.986027
7178 18765 0.124525
27492 31537 0.706057
22006 1706 0.459486
663 5771 0.977965
30112 18825 0.664328
16488 21154 0.087053
4884 28529 0.565569
31356 31712 0.364507
14872 29797 0.678688
7223 20449 0.848001
17425 11225 0.526486
12418 16450 0.845843
7888 32422 0.507272
14218 18485 0.205522
9487 3474 0.43395
21007 26931 0.252811
29101 4623 0.948095
12733 2509 0.482835
2146 17288 0.83529
8166 7862 0.563337
22956 8784 0.204728
14419 26025 0.744215
19072 8623 0.265802
27893 12967 0.710725
21537 12112 0.366298
4000 26330 0.618673
31017 3908 0.258409
13605 29520 0.43222
3853 6960 0.843569
19302 90 0.013498
30900 28934 0.964838
14328 27715 0.585828
4715 2655 0.0791109
29940 13026 0.0351556
633 14125 0.235082
23688 26533 0.0122251
77 21247 0.733861
30599 22935 0.780866
20807 5757 0.449131
805 31584 0.233535
14443 28332 0.690277
16322 14386 0.894314
21261 28040 0.323882
1983 30045 0.11677
15985 31151 0.327526
22738 8251 0.872218
7299 21502 0.268129
22317 17751 0.0710458
27391 7683 0.712278
20721 23662 0.787086
9232 11702 0.0267995
25616 22184 0.861466
4484 1766 0.160485
32507 7048 0.0979787
31942 18147 0.92084
30200 2162 0.142552
28400 11171 0.462886
25494 30144 0.0905152
5005 2641 0.411564
13020 2760 0.199477
24089 11408 0.400199
15116 1137 0.399046
30064 3956 0.972293
26778 28147 0.914172
27584 30309 0.0277021
28762 10609 0.454755
17302 5090 0.834562
22394 6336 0.822137
28142 12220 0.259596
17710 21143 0.584469
12706 29700 0.140426
5448 5799 0.153772
8036 23981 0.892213
29188 16683 0.811073
20780 12567 0.0292803
30365 12213 0.0641716
2385 4756 0.788374
9595 4037 0.0351542
23732 5853 0.683429
26568 23292 0.895363
19590 21305 0.97548
9853 13639 0.798246
15173 7573 0.193185
13056 21066 0.231083
25100 7414 0.849887
22431 27974 0.465128
31463 27229 0.200927
159 23231 0.374126
12031 28420 0.943451
27629 4101 0.967713
7714 16930 0.311425
20745 1417 0.787137
17596 12186 0.980675
8878 15287 0.968133
25345 28300 0.733196
16530 11133 0.134218
11397 23247 0.217033
10170 3933 0.407382
2818 17288 0.0520801
2929 3499 0.934613
15869 5693 0.618324
26224 14047 0.170694
28965 5465 0.823396
30779 1051 0.18627
5286 12055 0.961122
32072 26426 0.637534
6768 3657 0.905191
28626 22814 0.0182365
12667 7440 0.722207
3538 13670 0.885149
14777 14396 0.605228
28285 14196 0.447725
4222 13170 0.87972
25914 12596 0.290224
11719 19166 0.0870835
5581 17593 0.0658528
15538 25470 0.283385
26923 1356 0.191352
21644 19487 0.909248
7979 9976 0.439906
32529 19173 0.512661
27436 3952 0.602229
1188 8239 0.853232
1647 31444 0.827691
29425 6235 0.477052
3348 12427 0.575211
22040 13522 0.670734
16698 16473 0.730154
29402 14757 0.0233137
23316 28183 0.548384
2738 12629 0.794877
18454 5869 0.446304
6549 6470 0.413051
22882 6069 0.786971
1154 32342 0.27363
20782 32768 0.204088
29333 29253 0.129319
864 5076 0.218656
8847 24037 0.159978
17703 32699 0.254759
22964 13188 0.505965
32330 4212 0.343303
15620 15804 0.834882
29094 10676 0.144309
25204 17264 0.687459
26063 24953 0.462639
13026 11990 0.303572
19071 23088 0.429969
4287 19643 0.226137
8388 9983 0.41001
7337 9054 0.624913
1658 13568 0.972505
10417 24285 0.55949
29181 1527 0.17852
6950 16361 0.626184
25228 20401 0.723681
832 27991 0.440753
22290 17188 0.373969
20709 23707 0.849217
22843 11346 0.862232
11239 12040 0.314516
15071 6236 0.450496
21702 412 0.388719
10587 5505 0.760324
17357 17558 0.28516
22685 2709 0.629469
7803 3010 0.858688
25993 30720 0.236361
14062 12018 0.0857014
7708 23642 0.822538
5738 3723 0.470843
18340 20270 0.526808
14269 18872 0.461265
19582 16741 0.555857
26413 11134 0.166696
27177 3211 0.300412
31137 13238 0.742152
23638 28422 0.727997
22858 31914 0.743268
29912 29259 0.705727
9818 19616 0.360485
11492 11605 0.106307
12460 31303 0.502872
10216 969 0.30602
5254 17777 0.756116
22972 18017 0.567824
572 17148 0.525875
6199 20572 0.0132404
20176 13009 0.149162
15578 32618 0.882364
32557 23475 0.623374
19631 27721 0.642776
5672 10095 0.970743
31984 25090 0.793681
23253 15072 0.452072
17360 3731 0.600919
12892 8931 0.413225
31029 28980 0.464657
3148 14725 0.930431
18490 17776 0.298152
16203 15675 0.286923
1946 32585 0.41941
8690 32150 0.581019
27067 2751 0.777727
25148 27582 0.784276
2383 6614 0.371112
14346 9193 0.613618
32761 11200 0.879699
10385 18493 0.450835
2297 3023 0.407445
18678 2010 0.342697
25099 15429 0.91814
17225 2372 0.911454
19359 19806 0.852285
27697 30001 0.229685
21818 16349 0.474775
11474 3969 0.912229
21226 29835 0.815772
22885 28598 0.254608
11293 11868 0.140477
7677 26362 0.788374
3076 22935 0.483072
16891 23764 0.244212
22509 27361 0.377467
20245 18900 0.0684054
5697 27973 0.492703
15467 980 0.626468
12035 31075 0.790623
15662 2264 0.140782
12720 8505 0.205834
14510 3689 0.580461
10076 30396 0.502394
7949 29554 0.127314
17956 29074 0.148793
5226 22335 0.843427
18672 32386 0.0208288
7952 18832 0.171642
9938 6987 0.0529978
19007 26809 0.290469
22523 8440 0.273741
3552 23239 0.862895
20584 18473 0.305179
3801 17048 0.641659
3135 3080 0.675597
22873 16627 0.42436
1009 14468 0.951721
29786 18185 0.079617
6830 12211 0.914237
8650 12204 0.407945
8545 30321 0.772095
29297 27574 0.361446
32274 14308 0.631933
23290 26635 0.428366
9125 10855 0.720181
11447 12332 0.769097
13296 25441 0.377671
27293 21535 0.698268
19468 1398 0.977989
28579 9994 0.0458488
7003 24557 0.131426
8187 13526 0.059964
23971 28508 0.291561
25621 31939 0.0531729
17264 22506 0.254699
10891 4971 0.468668
29117 3291 0.361313
24271 20381 0.965117
24440 13593 0.116039
3742 1642 0.643394
31826 18391 0.761186
29455 26379 0.68931
26196 1592 0.2585
8938 7766 0.561342
13024 7846 0.0213844
2788 30126 0.56315
22939 11320 0.399706
733 2587 0.287275
28426 25757 0.660931
27286 6326 0.334313
22303 7763 0.461745
28099 6768 0.627237
13234 20518 0.672367
24725 27563 0.625595
9453 8616 0.465403
3611 30748 0.178231
1521 7557 0.364119
25700 21482 0.12367
15692 24511 0.462009
22784 29247 0.315844
31917 20588 0.200493
21650 14096 0.0641662
3967 19709 0.49085
597 2939 0.264304
10242 9535 0.133366
11975 32135 0.295856
13667 32613 0.626692
13459 8954 0.306321
16669 13850 0.720365
32547 16129 0.589827
17926 7410 0.74685
23142 25687 0.118352
3004 30141 0.719531
11951 31376 0.866297
26392 28675 0.876333
23989 30554 0.00998158
21243 19709 0.557121
28200 5954 0.995804
30559 32592 0.83359
16345 19025 0.229556
1069 577 0.573995
24239 14015 0.372206
17821 13624 0.286326
430 9144 0.438308
30692 4052 0.419711
3275 24833 0.678042
28420 27880 0.833686
1054 23876 0.700506
32565 24411 0.681062
20422 20995 0.868418
21604 32159 0.496884
15255 19842 0.788374
29219 27869 0.989872
7223 24255 0.671325
26726 1204 0.6654
21766 27307 0.700344
1081 7393 0.803066
4720 22328 0.575675
49 1437 0.363955
26833 312 0.809512
241 20273 0.563337
6516 9035 0.294556
10550 5986 0.887947
10541 18572 0.176781
25597 28161 0.741441
32063 19766 0.428128
8485 6752 0.263179
10370 21567 0.630723
23857 11514 0.273784
21803 4288 0.84032
13595 1527 0.346233
2214 17122 0.505739
24970 6202 0.964813
30985 18149 0.146218
31272 19945 0.683077
24398 22429 0.0429743
31056 26330 0.104214
24147 31419 0.0780383
7779 24463 0.602834
7136 28111 0.255385
5560 28156 0.487441
7658 19363 0.62434
21286 21048 0.112137
30157 27035 0.00638775
18664 21952 0.435807
19170 5939 0.444346
8218 31867 0.30458
23532 20772 0.400257
2346 14594 0.0240289
4314 22934 0.0706297
3317 5473 0.0777908
32309 18553 0.214694
5977 20616 0.579118
269 6110 0.940793
31282 28362 0.914172
27372 6584 0.0627707
26878 3216 0.905393
18249 5535 0.582118
5361 20716 0.0656502
11477 27338 0.614436
28671 21257 0.118031
27405 745 0.127954
27972 9422 0.512422
22421 24571 0.486052
18505 5052 0.513662
6589 17910 0.974412
13703 13976 0.47737
13141 5358 0.0698499
9297 12759 0.552929
1221 14983 0.287405
27974 5522 0.485143
7712 15169 0.732532
16935 3220 0.379208
11203 4057 0.496066
27035 13974 0.0823038
3502 2453 0.0236678
12702 116 0.994471
21198 11999 0.958703
18218 3242 0.109588
25614 21157 0.963467
20096 13336 0.46175
29893 9162 0.0608669
13404 6634 0.610514
27680 3369 0.70014
25416 31823 0.184414
5445 20659 0.998755
12396 3938 0.605198
20469 23036 0.267977
9796 12038 0.833935
8474 13203 0.138475
24790 4411 0.693991
20240 12151 0.488639
9018 5227 0.0684
1723 19416 0.583865
14294 23514 0.567778
8996 6150 0.29174
5737 14631 0.637708
4820 2140 0.62234
20957 31583 0.140883
9751 12477 0.0481343
22896 14250 0.0869118
22027 32683 0.344634
12427 2848 0.253382
24907 24384 0.121341
17150 17344 0.610545
23322 5224 0.309917
19675 22174 0.030332
5175 12981 0.751793
1409 27635 0.320326
12316 27864 0.785566
14879 11184 0.384302
16829 29226 0.0322936
16199 25155 0.0731834
8735 8909 0.305287
19728 21392 0.128948
9475 32035 0.130888
5241 28664 0.611926
988 18047 0.229266
12071 6988 0.40211
5201 19355 0.729623
12756 12769 0.293027
12621 10895 0.621702
1968 4655 0.367617
20085 25503 0.309352
28043 7246 0.348277
14573 24074 0.176291
30495 30937 0.761322
764 24614 0.0339089
18948 20344 0.277642
24885 21627 0.153765
19817 15378 0.609499
20572 14037 0.974695
25460 18049 0.942832
9411 4725 0.25915
16068 16125 0.42664
28221 28018 0.912032
18489 2846 0.615589
16252 29233 0.791605
29732 26825 0.276306
22293 2969 0.689397
35 4145 0.221175
28894 24061 0.470533
5602 7549 0.714827
22417 26136 0.244388
12590 22800 0.911732
4464 16010 0.508145
19067 15608 0.121873
11451 14096 0.406068
22403 15750 0.97042
8493 31733 0.787701
2711 17625 0.925353
7537 31035 0.350211
8459 24513 0.391275
447 5567 0.784312
5877 10673 0.0785332
7743 21863 0.703986
22694 174 0.825651
4561 7819 0.0406727
15418 30802 0.597086
26741 19122 0.15659
30231 30587 0.139214
5970 568 0.187119
3546 28309 0.35817
21977 32180 0.941963
15879 12871 0.0956681
27087 28922 0.724601
12898 8558 0.884445
20460 3629 0.296302
17324 20004 0.775005
13564 7696 0.33886
5557 13 0.678592
18419 500 0.265687
6492 18449 0.963684
23102 6921 0.680705
23980 9873 0.902316
24268 7187 0.702073
4877 18421 0.0955463
15125 29737 0.934368
14712 2752 0.279696
23847 8692 0.365578
10962 21487 0.426201
29895 4417 0.930294
9178 22440 0.780467
20556 16820 0.693394
262 14493 0.118173
11667 32445 0.773323
13162 20486 0.371495
6973 20462 0.449819
30288 436 0.893055
17673 18147 0.633236
30210 6421 0.117391
10987 7480 0.728886
18217 15051 0.960595
32358 18229 0.351831
29160 17605 0.0355712
22666 19838 0.516821
28474 12550 0.106737
82 25527 0.29151
32507 5217 0.93369
26051 17426 0.536453
5233 3536 0.364508
16322 14495 0.545117
22411 24366 0.950409
14597 28697 0.642446
25049 32495 0.351016
29172 20712 0.568935
13170 920 0.868594
31209 17464 0.902329
18469 299 0.137945
9327 20701 0.318501
18389 22681 0.549789
8406 17236 0.00147792
23004 31390 0.92021
11731 22354 0.114475
14630 23949 0.193458
16093 9231 0.401616
18805 4509 0.545745
15544 23754 0.459943
12210 21347 0.338728
7377 19276 0.0908846
31654 17370 0.128628
3132 8954 0.353107
15857 31918 0.502376
24471 13300 0.0593239
26410 44 0.827246
25002 16325 0.874688
14394 22351 0.861702
6460 15901 0.78986
31757 13756 0.105569
15484 29545 0.981754
25865 7504 0.356107
31675 18323 0.880974
5636 22027 0.116462
26174 26826 0.877817
2236 24939 0.865975
18969 3941 0.839129
16053 14626 0.07594
30715 5245 0.0954853
343 27885 0.165709
21781 18621 0.902929
30592 1810 0.1495
13363 2176 0.183932
28465 32465 0.658692
22295 16913 0.0622736
31179 28112 0.578406
23267 20406 0.250457
16120 5636 0.468249
16317 7912 0.246514
713 22338 0.656174
7580 22005 0.0773221
23558 8055 0.470624
19372 30629 0.995006
28502 23736 0.609912
7816 31170 0.973326
9779 22561 0.875066
19181 504 0.68445
22949 22712 0.525614
2721 12214 0.248995
17700 23376 0.695749
26157 5496 0.761341
3815 20977 0.481006
11872 6245 0.909317
28131 14569 0.446316
14033 15774 0.919409
17841 29889 0.933463
5923 28447 0.138686
15675 31773 0.64015
21319 24214 0.411477
20974 19140 0.709453
9141 10055 0.496383
9831 19033 0.388357
2569 26853 0.469645
4358 10491 0.814479
29602 8925 0.662764
16130 4 0.93767
26777 30892 0.545279
19051 14886 0.165965
8132 23938 0.879876
24809 19499 0.961272
10229 9301 0.397815
13986 13147 0.897932
31011 22977 0.681425
32643 3253 0.627552
20805 1554 0.831027
357 28776 0.981992
19764 282 0.0273881
15268 9797 0.118327
26076 25188 0.585179
32567 23705 0.209314
11337 21709 0.804245
20977 284 0.147325
17173 2503 0.580427
28827 26472 0.0604778
19385 25770 0.798331
23955 16166 0.909382
27359 18137 0.649274
20364 21315 0.0531294
18467 30233 0.348337
18061 23687 0.431838
14962 9189 0.757893
8110 18257 0.788693
10083 20789 0.940811
20208 206 0.514253
15356 31676 0.0358548
586 15408 0.5611
30951 27012 0.985887
25352 1546 0.220234
32735 5278 0.663049
109 29682 0.312277
3920 13484 0.903293
6817 8103 0.756225
6028 28290 0.0247337
31540 3821 0.892575
21729 31605 0.669942
16445 30493 0.766402
10578 20740 0.852666
16759 23600 0.812
27138 8077 0.202823
30443 18727 0.177497
5424 5337 0.374097
11435 28490 0.587658
23097 23300 0.943944
32289 5935 0.835603
31325 23768 0.719865
20866 5227 0.618324
4187 21976 0.057025
26325 11316 0.0230645
5495 12631 0.372206
8973 11024 0.0804529
6080 15206 0.278716
3097 18192 0.265534
28657 20276 0.797634
15238 27975 0.39735
13691 32014 0.968783
120 14445 0.692495
26224 20640 0.233971
19298 787 0.170999
12306 30965 0.0680365
12552 27457 0.454093
29876 27452 0.684612
7412 18564 0.535989
17993 32254 0.325072
6585 22028 0.0554864
5578 32660 0.0250183
11916 22030 0.42436
10167 19010 0.451443
12075 13186 0.889353
12539 16023 0.846977
5556 29828 0.146291
25327 15216 0.573583
12556 7062 0.156439
5604 14595 0.466112
30334 17166 0.56614
26778 26522 0.667698
18019 5415 0.711893
10786 7973 0.331074
13814 4184 0.986111
2472 27874 0.953749
18984 29074 0.771473
1237 15721 0.436942
12237 7435 0.868453
16893 14602 0.508578
15638 26007 0.347088
14587 24100 0.895618
30443 7094 0.485803
20037 29670 0.703737
32079 17942 0.735272
23468 25142 0.335899
22342 9704 0.78756
9378 2330 0.275529
29823 18725 0.704352
30699 21329 0.116198
19746 304 0.636797
32046 21349 0.241655
10156 5656 0.817009
5745 15844 0.920261
16224 13927 0.876594
12622 2992 0.823598
22967 4027 0.0855686
13515 27004 0.0354098
22957 18777 0.378473
26541 31313 0.0308842
28981 17648 0.576219
19527 16029 0.251105
20347 5049 0.839702
14116 31522 0.947966
181 22412 0.524937
16956 1098 0.80599
29020 17961 0.332476
17985 26004 0.371512
14771 7340 0.474392
17563 10508 0.933256
19723 31914 0.477386
22725 26525 0.675072
31840 27722 0.585205
20133 15102 0.257236
1605 4237 0.363259
12734 4278 0.487524
9228 30720 0.751865
18322 24103 0.0991495
28248 24078 0.151449
18678 29542 0.328358
5208 9076 0.0688842
8714 18471 0.537995
3313 3097 0.325824
15215 23620 0.237296
1342 17597 0.600306
13962 9884 0.337492
25853 12593 0.857285
26527 517 0.966232
5596 5402 0.419799
16919 32550 0.174547
8369 18475 0.900122
26004 17558 0.479975
12519 6154 0.624363
18165 3864 0.17817
31637 27304 0.680855
22106 17273 0.0266667
9316 11944 0.406107
30139 15973 0.284196
24750 8168 0.0782182
10589 10475 0.724871
18950 12131 0.166231
31998 27760 0.0411294
17049 26254 0.154862
3082 24976 0.543948
11736 15220 0.871447
12885 30609 0.0342073
17378 3281 0.951659
83 19423 0.684189
7830 31319 0.177776
18564 13337 0.709007
25697 14115 0.625314
13777 8135 0.049221
18799 7261 0.36558
6701 155 0.911179
9697 16541 0.304716
28795 12316 0.0671459
26140 17043 0.363175
22071 12606 0.470318
22809 2904 0.137378
20573 9689 0.45267
13109 15263 0.588341
17003 26580 0.788374
29180 27373 0.895413
20073 14577 0.500622
13988 20859 0.347534
21630 32076 0.0112256
2783 9065 0.284612
15291 27916 0.596673
2981 3233 0.335377
4522 9094 0.330183
8606 28016 0.467353
28349 15529 0.683995
1657 31755 0.844568
15528 9480 0.209817
13762 16377 0.169883
27841 22399 0.825134
18307 28405 0.413755
6272 2510 0.485414
7326 10743 0.136573
31637 1812 0.373969
17473 26402 0.215187
21208 16508 0.0802891
355 6235 0.98883
27072 18599 0.185221
16230 21532 0.0483818
30808 22546 0.521046
26930 19898 0.506073
21119 32126 0.958828
16361 21222 0.250338
24225 31426 0.337064
26930 25901 0.425198
30937 22970 0.979453
16347 23877 0.104621
18803 8963 0.726302
1470 3909 0.766569
3434 15880 0.934604
1185 20559 0.107342
29718 26555 0.428767
10695 23802 0.490162
10464 8028 0.678986
26638 31919 0.11244
8393 24694 0.879448
27680 16164 0.43318
23660 4689 0.0820319
1830 17007 0.447772
4193 11936 0.110959
29519 16970 0.329075
28387 26870 0.387986
625 19264 0.377322
22853 18004 0.878165
15700 22878 0.0289444
12075 9830 0.154318
2594 20897 0.907735
8977 3873 0.976625
15500 27476 0.450138
24887 30892 0.27019
25552 30711 0.481722
27626 16756 0.0482413
13323 6896 0.680491
29267 16529 0.899102
19356 28381 0.0567008
23725 29695 0.746404
31710 16459 0.408975
29077 31042 0.862738
21226 891 0.0632002
6222 15051 0.778766
24098 32350 0.333798
11590 10938 0.877195
10634 12056 0.33173
21494 16653 0.0944037
7335 6233 0.642784
5149 26106 0.52519
2069 1090 0.973493
8761 17173 0.457154
3891 16357 0.0414496
20731 29124 0.885516
1874 9838 0.474904
155 16156 0.433621
17926 10159 0.340623
13000 19862 0.714559
14587 19212 0.221178
31140 4413 0.974661
6508 29317 0.58072
27389 30285 0.845762
7653 1871 0.783364
12121 4262 0.291178
23906 23022 0.861867
9 21172 0.11898
12480 7038 0.710506
28930 16069 0.393275
1041 25767 0.168914
3566 28403 0.767944
32315 12739 0.664814
24889 21829 0.269233
11262 18336 0.294141
23245 10426 0.355655
22282 24003 0.530026
2438 19280 0.586509
32566 16290 0.491587
14974 11699 0.75013
19864 5736 0.375218
6391 31768 0.879687
7272 21937 0.728311
22455 11727 0.330383
28977 14884 0.445484
10507 30283 0.744993
15046 1659 0.982331
43 32530 0.980966
2466 25752 0.911852
5594 12344 0.733611
13041 858 0.35495
8841 27442 0.801961
5426 1601 0.480237
11382 22320 0.234787
3616 22666 0.383345
22871 31489 0.118031
6356 27314 0.930764
13613 9149 0.804401
22840 25054 0.0566482
19933 18896 0.662456
30719 6350 0.872273
24982 22020 0.539277
6381 26173 0.0519786
18775 27328 0.306352
26176 20773 0.631292
16094 30248 0.17875
20374 530 0.426966
22521 4295 0.949987
31253 4782 0.819274
29626 21165 0.463595
25808 1945 0.90052
11303 6790 0.15488
26432 12088 0.404253
26098 25641 0.689045
23040 14667 0.334129
24632 4711 0.0966096
6886 22082 0.483148
6214 8081 0.386678
29170 10173 0.69937
24483 23361 0.22137
5351 21704 0.211241
4745 20704 0.49704
2580 17268 0.605047
29705 2616 0.140426
30579 7831 0.642283
17835 30969 0.513525
13633 11693 0.152561
15121 23374 0.830685
29796 27613 0.735175
31219 7893 0.175671
19462 12067 0.981682
14316 20720 0.915931
19132 6320 0.510523
20038 18408 0.0215332
15559 3233 0.0750516
6519 18425 0.952066
5284 11914 0.00358954
17158 16682 0.141094
12681 9458 0.384252
5078 24343 0.568456
24597 6392 0.970333
18900 29379 0.0717083
28326 21046 0.396693
14145 733 0.140989
28876 27143 0.855827
30434 31274 0.525757
29306 3759 0.0525402
24536 22878 0.277639
4635 8429 0.419073
6985 24207 0.335595
5361 29270 0.69337
21681 9641 0.554688
22658 18584 0.8486
34 4878 0.3261
23181 17690 0.755921
14126 2560 0.629985
5845 5647 0.884468
10461 23133 0.818922
1259 30903 0.589208
5451 19960 0.448695
24239 7096 0.735847
21441 6036 0.175102
20727 7176 0.125738
13690 28177 0.13566
10810 11167 0.930779
27950 31614 0.918705
5848 9293 0.572526
7807 11471 0.781283
10224 994 0.590939
31531 13997 0.92378
2031 27326 0.348348
25032 8542 0.266416
1435 5161 0.234528
9083 27001 0.892601
30495 5593 0.0268828
29843 25219 0.840833
1341 22925 0.305033
13399 18173 0.282476
1949 13794 0.417491
1719 14091 0.394855
11847 5459 0.401043
3776 26381 0.278239
25600 19518 0.283159
23463 11623 0.826134
19011 29108 0.15063
28811 5799 0.201525
3717 16513 0.940899
24298 12525 0.0775613
9867 29225 0.465915
21243 20054 0.93099
1376 32181 0.0844177
24062 20712 0.130251
14314 31120 0.040903
15184 978 0.153121
25266 164 0.270999
6478 23793 0.905645
19062 9564 0.574809
14510 5304 0.22464
15381 7167 0.617619
29616 6699 0.314556
3769 2627 0.220592
9560 17425 0.91799
12986 16955 0.3775
15996 10897 0.397318
31762 26466 0.64698
18759 12277 0.366298
5083 7947 0.492559
31035 6583 0.136363
17995 24927 0.864141
4724 32342 0.558006
20947 3439 0.982331
25290 20951 0.241634
23815 26918 0.76231
23195 31425 0.560975
1475 24386 0.413745
27088 15232 0.200242
20356 16276 0.37547
2174 6499 0.813461
3982 10044 0.399569
27496 25355 0.934211
29779 3389 0.995884
15251 11741 0.658577
1703 20562 0.0151873
20713 22447 0.970032
13355 31948 0.189544
6602 13712 0.959943
28105 4051 0.777846
18444 3561 0.246436
6805 14555 0.226697
13542 28620 0.657474
19794 10900 0.787384
19224 9025 0.0776839
6971 18097 0.595636
9819 4227 0.313433
4603 23083 0.440578
8687 15070 0.463794
9830 1804 0.0620882
3497 24338 0.0518696
3272 31183 0.256052
25799 23624 0.85232
93 16678 0.309773
9143 16586 0.153923
4938 17708 0.200243
20468 2325 0.217415
14376 14324 0.514896
4345 21417 0.604545
27250 28130 0.75492
5964 2372 0.541282
13488 29991 0.254616
16573 21697 0.619328
13997 6861 0.372927
7098 27347 0.553488
15639 5962 0.740058
1141 10338 0.553257
18418 26186 0.834908
5790 25850 0.783049
14994 14492 0.499473
27222 10006 0.192122
30410 15957 0.548589
13389 9923 0.384584
11034 9580 0.345807
27652 29535 0.289475
21169 16006 0.624306
25304 25650 0.636895
8665 16779 0.199461
3669 28238 0.391054
13593 5017 0.0189168
14765 3530 0.855834
11326 13628 0.394205
4160 27735 0.221437
13125 25309 0.431765
10950 10496 0.902693
11006 4511 0.371802
30003 22009 0.562666
19789 32459 0.875816
12367 11808 0.329565
10688 27048 0.328809
29075 27506 0.688249
5193 17622 0.929027
22191 30448 0.131021
28606 11513 0.209517
8663 4411 0.797842
6494 26668 0.983778
2435 1763 0.793192
6419 5281 0.164252
26141 29160 0.599755
10089 23388 0.443753
2629 6866 0.76869
18795 31641 0.69789
1391 16508 0.376339
637 24586 0.557032
7747 20450 0.208526
213 9609 0.280328
21044 24916 0.222736
12078 27352 0.0129848
3712 26837 0.630947
23928 21050 0.350557
16175 3263 0.77941
13599 8217 0.307041
10417 5263 0.195415
10354 16118 0.866466
28153 26976 0.572995
32187 7013 0.582145
5709 4639 0.716569
7191 7729 0.839853
11453 15271 0.261821
24977 29160 0.894083
8957 31930 0.52822
2711 8821 0.713068
13311 8546 0.755726
11157 10357 0.317744
30337 2660 0.509392
2450 13134 0.434681
9650 21541 0.391702
19959 4391 0.689898
7997 27762 0.00298439
10918 23282 0.801288
17355 17723 0.935681
5300 7289 0.785179
19274 28187 0.704146
9598 3552 0.505965
22243 24098 0.865643
25975 23556 0.969836
8268 21568 0.575763
12213 32357 0.795333
3938 22400 0.420724
30129 16247 0.999805
2804 30486 0.843687
23844 29767 0.0826626
20585 11830 0.183849
24213 9137 0.340953
10681 18340 0.809332
27898 29341 0.674417
9851 22515 0.851535
4575 17305 0.982687
20803 32162 0.852443
2959 14933 0.621149
9495 7928 0.436938
3297 342 0.463264
4483 10334 0.322326
18357 8994 0.220768
29942 16588 0.827373
1867 24504 0.810835
15615 7041 0.534239
13683 4256 0.561269
31005 28399 0.780022
1137 7553 0.962038
3476 252 0.878979
972 13114 0.986516
13651 15539 0.089673
6455 21858 0.139665
4339 7619 0.464818
25250 4876 0.415391
3901 25953 0.175478
17504 22234 0.901887
26313 8474 0.699152
19631 468 0.546906
29270 19678 0.875664
8099 30314 0.100642
13989 5060 0.466454
16893 12552 0.613874
31593 15884 0.796486
32637 26023 0.348508
18655 4648 0.398052
25130 19988 0.527151
1441 27261 0.200968
16440 993 0.700615
10236 30272 0.534206
28274 29587 0.566231
12151 17915 0.293282
19661 8782 0.444421
17745 23921 0.158511
2249 12891 0.953557
1353 173 0.0915122
24482 32265 0.315289
5817 10496 0.575125
12258 1379 0.205343
8834 28977 0.960319
16647 16757 0.799617
31298 7214 0.746546
9589 4154 0.0942876
12368 19376 0.0291634
8827 8182 0.585134
18678 28381 0.415947
2687 30098 0.729057
10903 10640 0.211011
17358 8673 0.0867847
9186 19133 0.262289
16066 18796 0.751102
19216 473 0.793293
12608 17166 0.919207
14610 24116 0.781236
11278 19413 0.951608
3999 9398 0.359683
9688 1097 0.180445
16347 15624 0.424543
18228 4543 0.695097
7372 4484 0.229437
25534 17755 0.528797
16079 6219 0.251127
18181 10815 0.0678393
32379 14109 0.406662
24716 26088 0.337019
17400 23454 0.733339
17066 1787 0.00331361
26041 12358 0.856393
22589 9364 0.433371
22250 731 0.820954
1080 27594 0.23213
4415 7949 0.401035
27911 25735 0.309072
23723 19271 0.964106
7927 22882 0.754174
18792 24787 0.120168
10573 23786 0.782399
3782 22261 0.195792
26974 6024 0.762109
23884 10461 0.986038
21466 10023 0.848177
645 28108 0.461855
22532 30897 0.968934
17060 12825 0.390387
3806 32706 0.0100665
7290 8199 0.853435
8096 22292 0.230323
31035 28217 0.151634
27397 5100 0.76472
27810 29406 0.732395
17242 21723 0.361445
28184 32306 0.928153
1137 2582 0.455377
8063 19612 0.848635
3174 23177 0.836815
29254 16854 0.807179
13253 16588 0.327964
3625 1466 0.632566
28974 29019 0.786971
30759 14360 0.445471
9697 14670 0.865666
18798 24452 0.700166
28257 1594 0.357135
26352 9448 0.764111
24108 32111 0.336863
29903 13600 0.223923
9714 7718 0.887519
12599 29997 0.831585
25789 4682 0.806338
15391 6373 0.427859
31013 29863 0.557052
875 18751 0.253618
13486 5948 0.846805
18844 4980 0.246515
1966 7057 0.429467
11632 10083 0.733196
18098 25733 0.184477
23149 7495 0.563887
7811 4457 0.7656
31857 21419 0.681149
165 27695 0.840389
3617 10527 0.900056
10964 11203 0.82342
3056 18501 0.516459
1785 14878 0.0215089
7114 291 0.554852
14269 23487 0.319266
24629 12592 0.875202
22080 622 0.537025
7172 23361 0.825651
26204 724 0.723285
14900 12149 0.280776
3755 862 0.575211
2377 32391 0.796238
25700 19758 0.542877
29074 9903 0.833321
8951 1077 0.627571
15516 8298 0.725095
9682 5304 0.898829
10202 18023 0.946972
30904 27779 0.387579
26710 24952 0.817998
4314 16419 0.0343241
21194 17204 0.734944
29383 22285 0.578206
31529 18178 0.211766
26471 651 0.0658988
31163 24977 0.240914
3317 6168 0.753162
19167 401 0.665257
19101 31494 0.648299
19876 23738 0.627055
11695 14355 0.00689604
25813 28674 0.111305
31393 27696 0.745262
9238 3389 0.439085
5925 3873 0.0152389
7210 8982 0.939544
2762 14850 0.888943
22189 24196 0.0797497
8749 8060 0.692959
6165 2184 0.654951
11109 30423 0.0952679
4220 13971 0.139456
24152 30690 0.235171
2534 22332 0.870732
4152 15484 0.325558
21827 5230 0.69789
9399 29194 0.179981
30447 19506 0.808367
28327 11964 0.368419
12888 15910 0.532189
8718 24352 0.356851
7150 1383 0.231511
16989 19990 0.336903
30125 10930 0.307393
31359 1558 0.739356
10744 16673 0.810039
26318 30196 0.403904
22080 31035 0.101508
10072 32415 0.901071
508 20335 0.0476519
24658 11798 0.41459
3274 1554 0.31725
25810 9468 0.106412
32235 27793 0.60521
13487 11928 0.41382
1189 28445 0.406899
25594 11381 0.993734
15834 12719 0.0472945
22201 32031 0.740432
24405 16292 0.768346
923 8123 0.145211
6351 12419 0.477547
20105 1600 0.126166
20712 18816 0.429187
3131 3762 0.538896
20740 16381 0.681949
27313 2161 0.67802
6429 20649 0.0223642
27055 26928 0.344454
16917 2164 0.0667442
4329 13855 0.989568
2993 4668 0.592996
7269 5030 0.104352
31039 11881 0.00154351
26621 31887 0.317175
4758 14059 0.848179
1388 528 0.2109
30214 781 0.33892
21083 20621 0.305116
19251 29867 0.116747
8 2020 0.0960965
4550 19966 0.6842
29197 14192 0.610831
5234 16201 0.145911
16114 367 0.791183
3955 14864 0.555714
24408 5706 0.0251493
16334 1464 0.392551
22903 28907 0.806265
25541 8248 0.462424
9703 24111 0.3515
26466 23641 0.992399
15059 20108 0.240006
18516 7767 0.165802
17267 4506 0.88888
10103 29814 0.93099
24106 12069 0.0429281
7681 28151 0.43197
25842 15595 0.0560019
23726 12409 0.892658
16691 4220 0.564777
7205 16618 0.829252
18251 31770 0.818769
7086 17873 0.950329
11189 28087 0.390387
31517 7172 0.428351
11113 22493 0.268556
2213 25659 0.0113965
30810 27617 0.265839
7290 5653 0.440062
15449 25765 0.175478
30384 2646 0.083416
7479 4710 0.229266
24859 17104 0.783286
27191 20900 0.151338
20113 32536 0.527237
27438 11965 0.367876
29892 3230 0.842987
22182 17700 0.0696158
11464 4295 0.660561
26599 24088 0.191077
21874 4785 0.0966578
2039 31133 0.180659
15897 26628 0.0986365
18903 22702 0.868204
7659 12300 0.343842
22351 31582 0.908716
13862 2794 0.506778
27814 31189 0.741379
6409 1966 0.203975
17031 12639 0.101585
26906 9521 0.0466566
7676 29656 0.936005
32179 87 0.149722
22624 30071 0.924283
19119 6076 0.662764
13480 24840 0.761396
21564 16184 0.324256
853 16598 0.565088
4355 26754 0.425378
5031 18186 0.55822
21838 27279 0.900085
17426 3916 0.461953
8741 6486 0.963132
29425 10678 0.760052
23963 23928 0.587399
28470 17679 0.830726
17680 14962 0.189395
28533 29556 0.353517
12995 8734 0.55754
30585 6491 0.0990013
14937 9667 0.517731
6433 16982 0.673233
1769 3098 0.34521
30910 3164 0.366614
19592 27603 0.897456
27740 1369 0.250448
445 8608 0.645808
3545 2962 0.654811
8681 15914 0.208526
8436 28694 0.121221
7025 9012 0.0178749
15669 22289 0.990995
6118 2177 0.219586
17399 32161 0.315034
16842 13357 0.728569
25581 20387 0.439719
23578 16804 0.602975
29898 24714 0.139543
6906 9624 0.914084
31827 7957 0.546402
8579 31500 0.556101
23663 22339 0.802382
32453 8472 0.633828
12056 26372 0.197775
20316 11413 0.471884
20743 14926 0.0880769
27471 30993 0.572927
13039 27643 0.0846702
8269 3121 0.625121
27440 8371 0.273843
17023 145 0.779596
8432 19933 0.971709
30407 28822 0.292911
25659 26703 0.788761
12998 31420 0.123816
11446 24147 0.166941
12251 18178 0.0950994
24287 31969 0.815373
31841 11678 0.954798
19274 24601 0.676757
1 15701 0.212328
12256 1675 0.250329
2831 29295 0.661034
22511 1853 0.585563
18414 15660 0.194231
3966 9671 0.511535
16307 30860 0.0559442
9429 8144 0.508449
2750 19902 0.490495
31890 21451 0.0831909
19533 20265 0.4141
1064 19925 0.335965
26420 31141 0.655433
18081 25169 0.891174
12830 16775 0.521069
26859 3319 0.114647
12910 26959 0.103237
19353 1862 0.461346
6973 10966 0.821789
19863 31806 0.735881
18335 10292 0.905499
24219 10551 0.515462
22619 19646 0.0445864
20210 29865 0.57684
2519 7648 0.546052
26966 2188 0.177316
405 20588 0.650345
27391 1151 0.477608
3336 30911 0.299523
17878 23266 0.0677748
14855 11683 0.370788
3106 520 0.853364
16207 21305 0.992136
13139 6702 0.231511
9858 9542 0.276011
11251 26995 0.0285483
22604 18234 0.96761
17933 28765 0.428848
30239 21994 0.942711
21520 25727 0.0732752
17415 16547 0.628296
9623 25726 0.287524
2962 5465 0.35688
4369 23669 0.767865
28235 27722 0.0365384
24438 19193 0.653959
12960 16026 0.398544
31202 26163 0.225676
642 1294 0.54375
29751 13934 0.346427
23313 5814 0.161221
32285 8636 0.0393399
20297 11604 0.702814
27874 25990 0.925126
16372 5739 0.451408
26259 18821 0.461797
6287 25377 0.995672
973 28018 0.899312
19779 23656 0.215011
6250 29566 0.854237
23808 6008 0.905656
10313 25564 0.877817
28246 20701 0.32506
29400 13063 0.82592
30364 4197 0.338595
19534 6212 0.840405
8704 13686 0.209216
23493 23103 0.421149
17574 30902 0.13963
29556 17227 0.549349
29594 30553 0.918108
27610 5924 0.692715
18334 17255 0.623498
4712 26321 0.22797
12999 16207 0.463312
16565 6162 0.571462
11513 2309 0.307854
5058 10509 0.348656
9770 7643 0.927759
3965 20266 0.0234899
19954 18023 0.276642
30759 21641 0.0735159
21421 2713 0.595127
21329 265 0.207926
3723 21146 0.54387
25347 16819 0.355167
21857 19789 0.286069
4698 17079 0.105563
26170 372 0.181863
18775 27737 0.866913
11092 10263 0.381836
3959 20359 0.161466
13885 31400 0.472644
3892 8200 0.859147
30132 2122 0.475257
10958 12246 0.397933
28212 7331 0.0527278
5156 11410 0.850805
2289 4916 0.95576
9048 27449 0.0737315
23988 22524 0.250327
30705 2871 0.0886759
19912 5701 0.162761
28919 30592 0.0116089
29059 14796 0.740483
30430 26232 0.6555
25372 7890 0.850818
718 13929 0.465599
1332 8177 0.783331
29197 20080 0.0871043
4450 14320 0.68421
20976 26680 0.877593
6706 18054 0.83375
26212 4598 0.147338
3692 28471 0.911696
32094 510 0.767708
17057 22196 0.15909
22376 21447 0.692043
18034 18395 0.322898
2965 22090 0.517512
5891 18080 0.756116
13711 9279 0.832457
2167 10872 0.229305
2003 9750 0.38557
28484 29984 0.893805
3061 4397 0.336944
15134 2709 0.527887
14384 28759 0.008915
21241 24067 0.406393
12043 24095 0.969593
19277 3460 0.204531
20908 2363 0.353879
24805 30158 0.757022
10816 27347 0.0658988
20873 24139 0.573785
6024 29689 0.847739
26497 17602 0.744665
10167 24211 0.868418
7141 19319 0.0968713
23745 2428 0.800207
3270 2267 0.0384206
16617 31263 0.732515
27017 13260 0.669672
31912 2771 0.0464897
3843 27288 0.599959
6440 2006 0.928793
22430 19709 0.737356
768 22736 0.322136
17882 24640 0.556596
6174 26460 0.462552
24537 3905 0.696082
26940 25517 0.304876
30182 11599 0.502872
13637 16949 0.441914
4997 212 0.731518
22667 29848 0.62065
14631 14311 0.690187
13448 11408 0.218639
2093 17885 0.853471
9150 28410 0.653563
29390 3654 0.421789
30021 5723 0.794429
6759 20267 0.318827
9585 6290 0.900168
8623 20368 0.704146
2523 6458 0.532352
18833 23964 0.252256
17728 21546 0.343423
7486 28136 0.966135
371 5460 0.390273
17565 2156 0.123524
21529 12407 0.818697
15706 29961 0.172222
32146 23877 0.497061
30467 28679 0.501369
15930 14569 0.96597
13903 6106 0.415391
23573 24657 0.263318
21826 16800 0.207384
25162 26929 0.492285
9346 21422 0.526226
11633 26158 0.716763
15480 28918 0.168286
11645 20052 0.149793
26841 30789 0.192869
29213 20699 0.0956681
16071 4552 0.164563
21234 1970 0.220768
11438 12145 0.363545
7572 28807 0.666279
19152 10828 0.0286036
31307 14656 0.732532
1174 11853 0.787213
14468 31823 0.42912
3163 15411 0.00109946
16822 31739 0.716955
4172 27593 0.535068
25888 6122 0.0175289
7792 12285 0.378634
4000 13323 0.67591
11468 26782 0.00613274
22298 31018 0.401914
16635 3587 0.295455
18698 2917 0.847853
10463 21549 0.877556
20934 9288 0.0322516
21182 16610 0.83797
17036 22962 0.012111
18589 19309 0.185165
15880 30183 0.681593
29176 24677 0.128153
6383 3776 0.834048
26456 23476 0.236115
8349 15613 0.759691
1763 12848 0.422188
26657 26974 0.791183
8149 25642 0.953947
674 16015 0.350413
11403 17513 0.870775
23479 14403 0.246169
8920 10508 0.424233
15503 17027 0.934604
6814 23644 0.523468
9397 28593 0.356525
16229 24313 0.616774
7426 24829 0.3849
28243 4396 0.331107
24472 1751 0.877669
27786 17003 0.621466
3242 2003 0.596726
15252 410 0.640304
13999 14156 0.0742968
21472 7575 0.383116
13924 15777 0.176647
5965 15870 0.595835
25282 14607 0.157334
3173 10909 0.568085
4095 11656 0.1553
19075 30199 0.925376
3380 14100 0.936041
32642 11322 0.0869543
7554 22900 0.233729
13654 2148 0.607399
21100 4640 0.734644
166 8589 0.663791
17137 22400 0.094804
100 14776 0.744032
23134 25311 0.187578
7030 20037 0.000747637
3662 10324 0.945919
9956 24040 0.382956
16766 14614 0.996178
12853 5247 0.413745
10628 13594 0.116879
22485 24655 0.945672
29407 30259 0.778224
8454 28674 0.679053
4892 7672 0.661003
301 4479 0.669438
13560 26995 0.693113
27831 22649 0.516501
1656 17809 0.212462
10401 23471 0.923523
18584 2774 0.319034
20648 11478 0.85891
7095 1606 0.66864
21530 27857 0.381333
27585 19705 0.679456
29477 24842 0.158914
29721 1018 0.575945
398 32023 0.341084
2068 29016 0.998283
14395 14050 0.43012
14034 8370 0.518174
863 17869 0.791956
1794 4791 0.0257397
6514 26978 0.673631
13360 6271 0.688605
18729 2952 0.424638
3814 8929 0.623792
19185 3176 0.50724
545 16614 0.405677
16604 9118 0.62665
26254 29088 0.220407
12249 18252 0.664556
25487 12672 0.444584
13706 1897 0.670997
26060 10319 0.586896
20004 1841 0.0205733
32272 22029 0.258911
26529 3533 0.357664
9701 18136 0.548133
8601 21949 0.744887
23772 30616 0.785512
5959 5236 0.247476
24749 4922 0.287223
10415 28426 0.771938
32274 19743 0.519928
12816 11679 0.90682
14769 8759 0.635857
24621 12875 0.0358364
19193 3445 0.43451
25541 7102 0.360731
19178 22650 0.477402
18314 10402 0.158287
4912 13707 0.573537
13026 4610 0.834562
10455 21307 0.252209
18218 5134 0.557739
8765 16441 0.411342
17497 5362 0.995419
12882 12281 0.33068
2390 1683 0.380841
292 19042 0.0353904
971 27311 0.617038
7838 2307 0.17875
16591 28191 0.876956
13824 17815 0.918616
15105 18969 0.059964
8771 28593 0.149776
16941 5044 0.665206
9772 29091 0.592514
29141 13198 0.270388
14312 30789 0.766402
30585 3138 0.369193
15326 32762 0.648128
29072 1764 0.67479
30922 30774 0.330019
3548 20209 0.683029
18140 5545 0.157122
31394 11105 0.594518
31086 6500 0.767171
24525 4622 0.181092
19773 30887 0.58823
7483 27167 0.400502
31929 26754 0.694092
2968 6617 0.182667
2163 17482 0.0291999
29053 12251 0.710461
24437 1718 0.189321
9146 25783 0.45271
2411 16584 0.413995
30201 12200 0.259969
12689 16018 0.461769
26307 31535 0.56605
14230 14874 0.917587
27565 13922 0.418568
18015 97 0.608518
30721 27830 0.337873
3423 21711 0.267951
26623 10388 0.697737
5128 6454 0.00613274
4908 4663 0.898829
16343 9506 0.40869
29434 381 0.286888
12390 31808 0.868393
19090 9046 0.332722
22571 25362 0.4768
11787 27839 0.61855
1762 23360 0.518482
10046 20162 0.733861
9732 18935 0.497944
21220 23650 0.00358823
2409 26080 0.120424
12896 6938 0.813855
23671 32542 0.13097
4342 27906 0.8071
5789 730 0.99684
6543 4762 0.180152
19388 7264 0.525155
21521 13755 0.341084
30498 17713 0.581862
7631 28848 0.0311819
16083 482 0.60902
8953 28438 0.0881308
3558 966 0.992979
7190 18535 0.901649
27786 22710 0.00183318
11170 9895 0.458161
8700 7033 0.986227
4750 11891 0.937136
3627 9614 0.229851
2642 30694 0.338224
8978 25792 0.431141
4565 5931 0.0987632
1472 2992 0.462802
14431 29085 0.951863
2926 21445 0.789209
17796 16925 0.572993
30471 30917 0.536539
16501 9356 0.903664
23897 23437 0.751566
30782 13808 0.413275
31465 29198 0.0221048
26158 14741 0.576971
17286 6213 0.644753
28343 10434 0.776959
15116 7040 0.013915
25750 13095 0.542799
15879 20579 0.697189
2074 27689 0.28393
21780 1564 0.369454
7333 32429 0.483062
4223 6051 0.256165
22094 206 0.44486
23240 27293 0.800508
19408 24616 0.662623
26467 9392 0.796978
2173 12621 0.130536
19936 13919 0.233414
252 10595 0.278239
15966 8582 0.597529
25529 26881 0.856441
10796 17323 0.6033
10154 1557 0.715889
14235 13697 0.204503
13461 11133 0.160007
1033 142 0.742484
25824 4944 0.205834
29374 31095 0.360389
30223 27061 0.458678
24836 11941 0.801
23407 25371 0.126041
29896 1266 0.321292
14671 25817 0.898361
22034 8807 0.19343
12631 18939 0.430565
25013 8283 0.798408
4899 29380 0.562249
2956 32155 0.652191
20408 7998 0.786824
2784 30311 0.939346
32040 15927 0.704146
28785 8716 0.111378
8182 25652 0.769231
5499 17181 0.458826
12042 15418 0.0477487
4547 31297 0.346669
21939 13939 0.301682
16118 6973 0.563795
20358 17039 0.0679006
7784 10728 0.53992
8202 804 0.934798
3140 23469 0.0591496
14219 2314 0.845627
24821 3422 0.130732
6042 27972 0.0148775
27258 20756 0.0440725
3891 24363 0.629931
23470 28329 0.722725
9166 5319 0.495988
1137 1238 0.205463
32377 7426 0.624306
25237 229 0.709361
17912 18 0.525568
5024 32541 0.908736
10480 16183 0.49943
4667 20551 0.767949
25586 9806 0.411391
21853 20478 0.987899
7706 21241 0.500622
19956 13833 0.131146
3775 1662 0.00241613
8142 2144 0.370073
26403 17007 0.690772
24939 13071 0.18107
4776 27338 0.0113547
28484 29137 0.719105
24761 4110 0.721066
32739 29008 0.855469
14278 17574 0.380961
1210 22864 0.35933
379 13483 0.00224117
15578 8455 0.291148
15760 17753 0.347365
22510 25726 0.93894
29841 26086 0.378515
30275 6487 0.824538
15085 3446 0.258811
16624 16191 0.190268
12827 2320 0.51733
32031 31447 0.706029
12888 6380 0.903891
10547 14725 0.721936
25536 13490 0.635393
32607 14159 0.250543
10042 22253 0.0402641
25198 3616 0.322457
26722 27413 0.613338
3393 9409 0.125702
480 1180 0.0329741
7955 8639 0.206412
5176 27583 0.104286
9126 32374 0.348306
2614 15917 0.334608
3745 28626 0.997471
11636 10226 0.333299
5541 27589 0.662764
24810 3763 0.423774
32759 17842 0.564483
9810 17661 0.924738
15200 926 0.251765
24896 17439 0.624382
15058 6141 0.10952
16089 31089 0.266835
19862 16473 0.652861
29989 22016 0.132579
1564 5533 0.746203
3950 26278 0.810122
9678 25536 0.434028
25842 21109 0.821137
30083 21257 0.290427
30994 5149 0.0738312
2010 440 0.908837
27107 17091 0.327382
1580 7328 0.296022
10252 14518 0.326251
9724 22855 0.197073
13860 2273 0.472172
19209 19758 0.858
3775 6841 0.482358
17123 24881 0.61636
25773 7228 0.755463
13857 13693 0.0826065
4583 17888 0.77161
1888 10818 0.878951
27848 20959 0.059272
4860 16040 0.737152
6601 23822 0.304488
16191 12891 0.467715
26991 4038 0.406731
5360 1715 0.384359
23447 1179 0.548925
15948 30281 0.258011
4922 15962 0.721969
25126 7105 0.859066
9423 2652 0.585651
187 30529 0.393949
24688 18810 0.830741
30502 31741 0.62359
1390 29424 0.730986
30879 27968 0.18978
1541 5825 0.173867
26667 21745 0.506465
2694 25696 0.00882613
21656 23131 0.563414
4284 14860 0.160724
18752 9311 0.82993
15108 25167 0.0658528
16837 26609 0.0835509
6357 13314 0.0268882
20115 32372 0.0182954
20676 24136 0.86585
15711 12968 0.328318
20159 15183 0.865912
15005 3966 0.848556
4052 16538 0.719331
20616 8630 0.0553151
10432 22550 0.396387
28175 1549 0.331002
8860 15557 0.0141288
2881 20308 0.665197
5156 10857 0.0331123
19855 26888 0.130506
29003 23733 0.844233
28672 10035 0.700992
32230 6680 0.583643
11288 23822 0.56577
17703 6661 0.810217
12580 7920 0.943961
13918 15520 0.606115
6052 32115 0.303887
32011 24340 0.213016
1490 160 0.358725
26227 4035 0.831692
19801 8279 0.783382
14574 10996 0.152717
4552 26528 0.120712
8623 18157 0.440368
27088 20067 0.312856
20797 22264 0.699158
14940 32500 0.418205
12387 9363 0.999632
5062 7478 0.705333
19944 21352 0.389443
17751 12417 0.0480993
28657 19437 0.609827
19646 17548 0.883607
17995 29283 0.777684
14583 22905 0.658931
8861 22585 0.626184
411 24223 0.327526
30240 11477 0.989024
13153 4106 0.865245
27903 17091 0.24553
2245 18487 0.0842623
3561 20976 0.555613
27124 29379 0.965566
16507 23701 0.822453
11809 4294 0.180296
9932 3088 0.85165
28759 15530 0.534154
17022 25972 0.188378
1820 12932 0.299636
3391 50 0.170794
14212 16559 0.910194
8004 4008 0.407445
31175 28498 0.82644
27864 21191 0.801447
408 32211 0.963428
3482 890 0.138686
7507 7299 0.179367
27788 26338 0.0458488
6022 26519 0.532935
29236 17726 0.639589
27285 30632 0.444302
19376 1288 0.461949
22820 18073 0.350565
27706 12748 0.279696
20094 14950 0.529351
3158 20050 0.72851
31686 7758 0.923422
11129 8649 0.121371
10696 2676 0.577008
15638 31084 0.334464
7723 30894 0.013618
29766 11271 0.482311
29772 5034 0.375478
3475 7206 0.818751
31525 6256 0.439906
17331 8361 0.296905
21008 11278 0.746428
10665 31899 0.109174
10566 11918 0.438241
24402 4723 0.975933
21096 14555 0.817453
9842 1514 0.418777
23936 30426 0.700851
26902 4335 0.950351
14845 29234 0.998751
13471 12449 0.29271
31866 18514 0.170526
3181 21413 0.475818
31311 17716 0.390294
25016 22063 0.250426
5860 18082 0.08851
9820 31597 0.224028
8121 5611 0.867442
25661 32039 0.592483
9216 26136 0.0437073
19199 9603 0.0435257
10806 14544 0.969202
15100 27380 0.204088
21043 3115 0.281594
15491 19067 0.130709
23731 26506 0.768039
7495 13979 0.391806
28931 25933 0.994165
3494 4019 0.0818952
8243 20562 0.838913
12302 25288 0.959943
18855 2793 0.0853395
18585 14188 0.698627
32193 2502 0.352458
11729 30161 0.398821
28624 21786 0.0559447
2418 1523 0.614651
9053 9342 0.142383
18726 26402 0.948559
23366 12919 0.75347
14078 23958 0.457214
2047 3576 0.382669
12313 9952 0.299096
7191 4219 0.556943
32500 16253 0.327964
7140 29645 0.79884
12418 2450 0.0699831
15117 24225 0.0201307
8669 8778 0.912279
2903 29274 0.233101
24161 11527 0.223476
2235 12425 0.221197
30455 27767 0.716891
24229 114 0.438985
12647 17168 0.283258
14709 7349 0.0886898
14924 26784 0.0416768
31880 14393 0.132553
12863 9797 0.994526
2895 29959 0.114707
1049 32199 0.466834
8219 26044 0.111425
8585 10797 0.441983
32189 25108 0.37535
31274 20666 0.27695
24188 5278 0.866036
7664 24444 0.592609
24288 10718 0.933802
15247 11371 0.644817
795 28186 0.623821
22153 9828 0.963981
28420 30540 0.669794
2590 11659 0.360126
6412 17735 0.105853
7536 16168 0.247976
15939 9343 0.0271825
7566 17107 0.598489
7847 31494 0.171864
24026 4501 0.94381
26431 28045 0.408198
16201 27972 0.543939
6127 18192 0.239841
32016 12097 0.418004
20576 26034 0.936937
2304 22460 0.666502
4817 17433 0.885157
17869 9921 0.509795
10343 26877 0.116198
17324 24115 0.298614
18680 10530 0.692315
31301 21657 0.919207
26902 32745 0.090657
11892 21185 0.858424
920 19628 0.537697
13697 5993 0.261789
27126 1604 0.117582
21425 2404 0.0262006
27539 29824 0.779898
23905 4316 0.8094
20775 26015 0.564652
14426 5652 0.00727182
32762 1838 0.873834
20949 29704 0.0400624
19955 7381 0.92651
24772 25441 0.979517
2287 5718 0.0863224
380 30261 0.837366
6674 32133 0.586848
6789 10011 0.0164154
28599 20711 0.912083
31324 2757 0.0880298
8911 14349 0.687674
24808 5963 0.96162
11570 5509 0.104558
16282 11407 0.848706
20436 17866 0.935681
15724 26119 0.00387069
24242 21537 0.0818324
21513 1125 0.184197
25672 4690 0.847249
9852 689 0.811415
15153 30814 0.984895
28182 18390 0.525463
13825 23212 0.513357
13456 25614 0.534159
21050 29280 0.54327
2463 3729 0.821334
21248 10553 0.614148
20706 14319 0.927846
16892 30913 0.768438
14231 2915 0.949501
31093 32647 0.978348
28840 8827 0.928416
16543 3162 0.507299
28392 14819 0.392608
23880 1936 0.250457
3943 18222 0.172811
11973 2386 0.131752
29561 730 0.676367
17589 24279 0.999863
790 6559 0.00113806
237 14085 0.11685
7747 19715 0.203636
29087 31876 0.535989
22685 10377 0.217584
20074 31385 0.0518839
26481 9050 0.151616
31643 4651 0.0572111
10711 23656 0.812536
9725 31989 0.505893
21871 31959 0.556121
8037 7838 0.698597
7290 29194 0.460064
161 20250 0.986038
20080 5934 0.757456
16864 18761 0.932506
18477 26080 0.39277
14706 2 0.792575
1689 17095 0.179377
64 30226 0.824943
11754 15926 0.933532
23318 389 0.271965
16379 26892 0.667839
3378 17480 0.99684
13871 24695 0.792893
7166 7775 0.589256
25845 32367 0.87792
4643 5570 0.111428
28595 27576 0.833494
125 6873 0.584278
6949 487 0.473198
23342 13394 0.428886
1340 3112 0.352002
10668 16706 0.297569
19165 31302 0.929796
4638 31167 0.10585
32406 14532 0.102417
15757 31738 0.0773221
24577 17592 0.272675
26642 4018 0.302821
2033 18727 0.159966
4855 572 0.208474
4900 6799 0.63273
14052 13196 0.101427
16361 13847 0.330405
7820 25310 0.324044
28792 17556 0.227298
18145 29033 0.457225
2133 28876 0.38043
17856 9430 0.0485286
23189 28830 0.361445
31103 4648 0.278155
32027 1826 0.417926
17626 10156 0.217698
6915 16374 0.318908
15835 20731 0.315932
5934 19627 0.499887
29236 6921 0.35817
24611 517 0.953652
9349 31369 0.226182
9470 13787 0.743509
7812 19450 0.0513138
6470 11902 0.443895
17248 17988 0.00797413
11150 24173 0.39196
15774 23821 0.671344
32071 20645 0.754024
6988 395 0.155046
14450 19331 0.492538
27118 26030 0.633905
26817 13005 0.614421
17642 30114 0.596766
22896 21081 0.0609581
27489 10590 0.395675
26829 201 0.363175
27290 416 0.343303
15710 32294 0.238993
30490 21456 0.0476342
27938 19448 0.923461
5209 20123 0.993735
8394 8617 0.676967
14927 1418 0.890718
4301 5494 0.700552
4543 7526 0.271551
10570 21418 0.755651
21273 7097 0.451218
105 28695 0.329877
216 30296 0.671284
3791 20398 0.454606
15885 25302 0.134722
17307 23092 0.55936
30607 27087 0.963201
375 16567 0.205401
17196 182 0.782399
15057 19559 0.575642
31617 17275 0.201585
14867 7033 0.813348
14568 5098 0.0151371
23096 8357 0.216511
17745 18684 0.324696
10816 14547 0.581862
10581 31583 0.594066
1260 14014 0.0684
3857 14624 0.454306
26690 22828 0.18123
27070 7663 0.70488
20142 30531 0.793919
17583 22677 0.0223033
3639 17891 0.648755
19419 11885 0.942087
24384 17190 0.572767
30069 27216 0.740677
8199 5878 0.562002
20164 14741 0.557756
20322 10943 0.568776
23618 26826 0.944376
11792 8313 0.932026
22937 26219 0.839747
32619 17122 0.249516
31487 22807 0.149976
20724 10236 0.637344
3362 19023 0.231172
6399 10348 0.892378
17980 9329 0.509034
29759 27796 0.546515
29419 8469 0.615161
23965 2277 0.634796
24467 15658 0.0938289
6842 3900 0.718045
12638 7332 0.527732
13297 4811 0.469709
16922 14978 0.169371
16543 30016 0.39356
6896 30366 0.267906
28861 27797 0.298007
8671 18551 0.782356
23214 15067 0.730271
2617 10285 0.398712
7766 6133 0.288602
22529 7028 0.389471
17422 23317 0.569266
22713 29049 0.919705
9999 16180 0.0960874
21405 24523 0.0071186
31317 26569 0.208251
8183 9500 0.406899
20731 31089 0.839558
25172 32526 0.631556
23704 749 0.1361
32551 23554 0.772089
5876 22804 0.796049
4175 19520 0.36246
6526 5249 0.813966
1820 15213 0.394391
28476 19649 0.403472
6860 13251 0.947923
14690 16060 0.892862
3123 27939 0.578762
2433 4282 0.540512
5971 24832 0.637941
18221 15121 0.773075
27948 24715 0.163844
10093 17012 0.0617797
20048 16780 0.341398
11860 10166 0.984129
6699 29392 0.0948754
18643 28937 0.149837
32694 1109 0.246108
17480 28580 0.455257
27538 14769 0.447772
6497 19270 0.0339467
31260 9554 0.676638
3214 18331 0.00705646
9280 32718 0.15645
9730 18598 0.430175
27168 29409 0.500466
9960 15450 0.317186
19958 11907 0.234395
3692 21560 0.400263
14111 23558 0.826919
9025 6509 0.624253
12768 30908 0.213415
5991 18387 0.187637
30180 14538 0.831585
15296 17320 0.6331
26337 21381 0.277134
7701 28486 0.376519
20254 12976 0.988725
22004 30163 0.0938964
20616 32132 0.090657
32428 13876 0.854178
9477 22929 0.594337
16186 26208 0.808214
12601 10483 0.0143616
20896 25715 0.573975
20048 28625 0.218365
27175 6844 0.848388
11034 11474 0.253618
28044 25553 0.481158
13149 12328 0.480352
4225 2167 0.824926
21096 2560 0.721478
489 28642 0.142481
24461 11118 0.246379
21690 24953 0.0159451
19415 27547 0.411797
31293 7233 0.680855
27195 21425 0.823073
2960 4780 0.558778
26807 17749 0.984297
23064 18235 0.338475
27319 29420 0.815769
18560 11427 0.146259
28577 8304 0.283375
8859 19526 0.212613
6014 22141 0.566343
16365 25139 0.735632
26315 32519 0.382164
14765 26663 0.647179
15432 10615 0.763293
21021 25601 0.447986
3405 10032 0.739752
12673 5057 0.217378
30270 31609 0.234805
14500 9949 0.165965
23912 14317 0.620492
17733 9109 0.229659
3451 29472 0.371606
20462 29208 0.0550225
3528 22457 0.413963
5836 14389 0.164721
5204 7550 0.818594
17333 1270 0.000747637
15321 1974 0.933256
9633 22768 0.837919
31264 18506 0.749319
1241 21591 0.821697
31652 14391 0.699921
10039 31411 0.440957
5221 20131 0.157725
15196 31160 0.766987
6908 7666 0.661034
25874 29840 0.487826
983 2767 0.398614
8513 18838 0.893331
3886 8174 0.666804
14344 11826 0.0443834
25675 22741 0.0076568
3009 9270 0.937764
16052 5298 0.286794
8202 539 0.490548
20051 14508 0.445692
796 10498 0.94602
7521 21249 0.08912
31252 5843 0.673995
3216 20522 0.683461
3928 27826 0.368883
3505 26183 0.0397733
22561 28785 0.436412
3459 3921 0.209613
4606 7080 0.697987
12919 11831 0.296592
6456 14701 0.270554
13654 8822 0.512428
25667 476 0.374505
30019 32660 0.358488
23490 31873 0.622388
25508 15093 0.511326
5044 999 0.356851
16587 21419 0.00968841
26751 19682 0.773103
7264 23764 0.192698
27829 14905 0.0472526
29315 26710 0.94177
29407 30901 0.613618
11978 13093 0.983761
22673 7136 0.977989
27691 27601 0.315137
30583 13875 0.00059616
14777 6993 0.924993
20654 20276 0.85145
26766 15640 0.172007
28739 9844 0.210028
29196 21504 0.807179
14936 19625 0.367085
31535 15390 0.458766
26016 23295 0.420703
9023 27993 0.344744
401 28228 0.885411
12812 19661 0.698693
2707 17789 0.445677
6407 3462 0.507075
21965 3838 0.14893
18526 3960 0.45498
4329 7782 0.847811
17681 30135 0.424651
9961 9531 0.197504
14144 14423 0.886757
21418 19426 0.534387
15952 28405 0.744734
9880 13719 0.539186
10605 5218 0.575248
13180 5052 0.384584
10153 12966 0.968133
10150 27156 0.186691
24070 26882 0.359925
515 29277 0.981387
17699 31121 0.939965
32721 32061 0.646917
10807 28737 0.866251
13753 26612 0.848556
20766 3205 0.178881
25196 8722 0.972428
16121 15351 0.194231
26446 11439 0.308722
32178 18628 0.0623125
16387 31354 0.3849
16670 12785 0.592024
14141 29849 0.365724
31426 27738 0.609035
96 11314 0.0623382
32449 5994 0.619693
7574 23505 0.129212
607 4891 0.626075
15310 24669 0.768223
4154 24446 0.858528
16220 8442 0.164395
27404 25422 0.978576
31719 22781 0.509817
23960 15606 0.487673
20360 30919 0.000749335
22876 13903 0.175506
25953 10468 0.622085
10942 1239 0.68254
18619 23863 0.0698919
17232 11971 0.246697
32231 25826 0.654811
14077 6486 0.416471
17187 15537 0.769845
30 13257 0.222736
24544 855 0.643195
20235 23303 0.422188
17222 9557 0.214893
1997 7756 0.355763
3212 14797 0.243228
10488 17416 0.158666
20279 5521 0.875265
27608 14739 0.354435
30477 32423 0.229859
7257 11249 0.593208
19946 17283 0.255819
17726 29614 0.105845
1143 31995 0.169305
21798 5157 0.795454
8619 30033 0.0093561
4029 8716 0.780574
19607 17309 0.830861
28630 15414 0.763532
2700 21770 0.896866
28912 673 0.283258
31647 4080 0.657928
24328 5680 0.863182
15254 20918 0.813709
27737 13487 0.34926
20089 31566 0.941073
16261 13245 0.646555
19632 13809 0.16699
16023 6206 0.313514
7439 15624 0.29374
22406 13611 0.325938
1904 12520 0.797682
22564 8612 0.53992
1169 20037 0.92228
344 7081 0.769845
25263 26245 0.107688
16502 3739 0.484739
20804 21322 0.675488
7499 16017 0.602116
5548 16534 0.835346
6745 18361 0.149552
15218 18172 0.937908
15606 20303 0.487887
20010 6493 0.921359
4761 32274 0.69937
16108 27622 0.356532
21332 2789 0.193782
9559 161 0.414576
17546 22228 0.27608
2575 16635 0.841693
2451 28122 0.813154
24820 16359 0.282531
16343 21288 0.699058
28698 9035 0.846421
7334 27209 0.833023
25774 18113 0.232576
13526 10819 0.579926
2820 10438 0.191707
18393 3010 0.584388
19133 22816 0.910816
8309 27908 0.95617
10156 7214 0.580106
28599 17008 0.126014
13721 12704 0.18167
29668 24452 0.461949
25148 26564 0.644548
28433 14704 0.101278
19556 6377 0.728901
23980 18830 0.408719
7340 24826 0.897709
11118 19301 0.487161
15958 4224 0.66402
16865 7476 0.419583
20182 19967 0.087053
950 14559 0.879226
15780 16261 0.334037
5838 8574 0.229924
16950 27478 0.516981
24265 26538 0.27403
20975 11643 0.15659
20250 12730 0.654042
10095 28381 0.255622
21619 14904 0.207464
13946 4919 0.626893
24159 13650 0.322792
7317 27277 0.220719
14720 29225 0.725116
21278 16422 0.424259
26356 11747 0.964319
6248 13452 0.979689
27358 9021 0.725905
27777 4853 0.92119
30387 21156 0.888431
6848 14022 0.210999
27935 10849 0.393226
23564 6843 0.491903
20117 10134 0.738766
22344 19842 0.251033
7073 20301 0.361158
12139 6360 0.379842
29607 14759 0.722496
2099 22756 0.746584
25327 15290 0.274714
8719 27193 0.0583641
8594 28914 0.946887
32308 2383 0.0429898
10822 14640 0.017477
24296 20115 0.949501
30182 18394 0.698627
12397 17191 0.426462
20614 4642 0.654394
26097 10190 0.568862
9448 23453 0.356794
5373 27924 0.801008
15769 4643 0.0139052
7626 9161 0.521204
25357 17802 0.615474
28571 12743 0.516453
4080 16119 0.573222
21258 17666 0.472683
8115 31693 0.0511536
17303 23426 0.641305
16506 7153 0.114922
28987 22860 0.00811605
29600 9445 0.383329
17568 30149 0.347183
25350 6292 0.970193
32651 30249 0.224339
24971 31541 0.601758
21898 29273 0.743268
11117 6826 0.821778
7403 31943 0.464978
28015 11934 0.746129
104 8687 0.326586
22657 3557 0.435007
4906 6166 0.151031
23822 14591 0.00116906
28203 11722 0.960739
2088 24954 0.139543
6060 8232 0.0490953
9105 1170 0.663681
10152 28320 0.143842
12051 6716 0.260662
18219 26014 0.944803
26579 12316 0.236109
29832 216 0.725101
20059 21409 0.822789
28851 201 0.362634
27365 18130 0.908414
28567 12125 0.291925
1025 26536 0.930473
20862 16413 0.0624436
6318 15700 0.425067
20391 14810 0.840542
30421 5665 0.457296
26068 12119 0.964944
25737 15901 0.993376
21737 7812 0.516955
31870 14450 0.751404
18788 16174 0.761837
30589 10312 0.342697
2013 7234 0.860642
12209 7242 0.0240911
8263 941 0.199982
27289 24043 0.270263
22395 22224 0.887941
29094 20770 0.504158
27310 21008 0.233955
11379 13580 0.822485
6331 31061 0.41941
11126 14829 0.106918
25356 15540 0.0428917
14600 14377 0.485753
29918 13741 0.020113
32467 16762 0.249516
9932 7022 0.295868
21866 15060 0.239999
6963 14484 0.761186
29146 1936 0.168296
29105 13382 0.194612
20406 13999 0.509019
2995 4284 0.573995
9423 31823 0.928861
14788 2564 0.925072
3362 18975 0.82195
15276 8585 0.0313257
10567 4078 0.579347
24375 127 0.650344
8888 18046 0.323145
298 31821 0.659762
3159 8401 0.760372
23240 2236 0.911852
26282 1562 0.754786
31409 2119 0.530525
31132 31776 0.675949
12831 6173 0.00971926
9450 27765 0.736773
26809 18314 0.510329
10743 11739 0.992469
28986 10469 0.943763
25777 31874 0.256165
10278 26338 0.25105
32096 9123 0.711883
10699 12995 0.0715715
311 14522 0.731005
19192 20762 0.268387
732 8614 0.566969
9528 2080 0.199108
30304 670 0.963111
19245 27779 0.977558
31281 9536 0.522121
1340 15762 0.0637315
22611 8308 0.150735
13760 25061 0.133574
24292 17070 0.669247
11431 3188 0.0870672
2535 31967 0.381192
46 18497 0.65084
4966 7363 0.153952
19119 11704 0.782943
28724 24945 0.258446
9063 17635 0.11368
28391 27970 0.571525
4596 9725 0.637753
1784 4082 0.429892
24226 17565 0.804401
5970 9228 0.129717
255 29492 0.114947
27098 32732 0.492648
16952 1391 0.635186
13410 1408 0.42831
1245 24341 0.568935
26079 32097 0.56261
32581 31341 0.630569
28173 9123 0.589998
4248 18465 0.405431
24825 3248 0.628068
27061 23438 0.2046
20153 13793 0.0815921
19323 28301 0.329765
30475 3329 0.898666
21431 6105 0.874197
4168 22369 0.344744
9114 27301 0.851349
28486 27429 0.253148
18358 32676 0.00133287
1110 12809 0.683789
679 6681 0.527237
22955 21104 0.630232
17616 3771 0.933218
1018 4359 0.574804
18953 12692 0.0667497
24143 960 0.223921
8304 1061 0.430825
10518 24881 0.462159
28741 8006 0.278155
17435 15026 0.598624
25872 4019 0.482123
13463 15525 0.542877
32394 31822 0.297489
21327 21507 0.209589
9879 24933 0.703067
3234 18164 0.38529
22716 6519 0.060118
21826 15856 0.443997
14606 22381 0.814674
17545 156 0.324795
4827 19005 0.0557499
29246 23368 0.856441
26743 18261 0.721525
10749 10656 0.988939
19563 25753 0.111842
4402 31683 0.44346
9938 10607 0.0181541
7731 6137 0.0798757
17497 8753 0.0220228
23505 24378 0.871354
26334 27280 0.880527
10034 21368 0.774315
21554 5566 0.623417
22392 3879 0.746203
24544 23432 0.559274
18642 15298 0.191852
22500 6134 0.0666616
1992 25485 0.775005
12187 18710 0.175837
16180 30341 0.311104
1673 8768 0.330507
524 32485 0.831449
23062 28025 0.447725
10189 5641 0.471146
14152 15394 0.258485
18577 4912 0.863975
11450 32654 0.184988
18660 21514 0.0267924
27241 30608 0.316266
6917 30698 0.709338
12211 5609 0.392174
23884 1588 0.615559
23289 28605 0.393637
21051 5797 0.0437867
4512 9610 0.924112
5216 3091 0.434106
20032 19439 0.201682
14904 16750 0.570321
3972 480 0.457665
12446 14245 0.96867
16195 24280 0.120168
7896 23516 0.177736
18478 8161 0.605938
20260 9956 0.681054
11562 9093 0.239624
31385 27943 0.350304
9983 13999 0.167576
11960 5428 0.368591
7445 17865 0.327163
28274 510 0.343618
19471 31920 0.924283
31174 12677 0.283457
692 27629 0.341944
31736 16600 0.828847
2495 24598 0.199948
23166 2257 0.845079
25359 26005 0.262825
11435 29333 0.397615
2280 12641 0.837171
18624 12682 0.0968735
22112 11829 0.213418
2133 223 0.310924
15183 7930 0.542909
4096 23869 0.112625
26418 3731 0.0849333
13054 13253 0.588317
16039 24618 0.302539
26377 27249 0.17015
9714 19169 0.10948
26535 6694 0.428663
14179 8702 0.740716
14263 27221 0.75347
20112 27999 0.233676
30601 23167 0.613441
12826 14619 0.0212539
9468 10515 0.656712
7636 12375 0.791444
3093 19115 0.327542
6288 12093 0.568487
15781 7005 0.279377
2907 5899 0.671047
12975 2292 0.884163
26036 1588 0.0462768
22047 31686 0.529609
48 12877 0.407275
15687 3044 0.551425
12096 1028 0.279952
15012 26550 0.897727
17622 16289 0.433357
19235 20202 0.856633
16993 20526 0.45297
25852 15281 0.567208
24326 2213 0.401004
3172 29346 0.0272156
25997 4270 0.389197
6972 29110 0.694726
21752 18912 0.374505
1172 8597 0.563628
19383 19751 0.919816
14084 23659 0.25009
24719 23116 0.425983
11740 14239 0.213418
11414 13665 0.437681
28142 10967 0.226375
27749 24826 0.841127
13868 26399 0.405111
10868 10387 0.15855
10231 22597 0.439129
32153 23526 0.154769
25093 9399 0.34495
240 5215 0.315343
31380 29794 0.0083624
22265 24718 0.457462
4360 11211 0.423751
7842 31816 0.223417
15896 9134 0.298543
23811 2483 0.926583
13598 21570 0.365449
12491 26716 0.675163
21836 28866 0.911924
25327 11718 0.938679
6808 24868 0.68578
6004 16393 0.106884
10565 27372 0.811169
3358 6764 0.608332
11102 6452 0.517359
16051 28705 0.431902
28114 29851 0.0023097
31615 12224 0.77946
18877 3204 0.0183674
10146 31820 0.199209
26006 19185 0.533811
11853 23895 0.424453
5528 12864 0.860969
32457 16523 0.155345
22588 14430 0.982351
7543 1528 0.961408
18449 12801 0.99967
19704 18914 0.755021
7956 17898 0.659113
2187 15096 0.930973
30285 15845 0.32802
5350 30721 0.449131
5478 16768 0.49711
18767 29084 0.861364
21573 6024 0.592795
29951 7872 0.608175
25094 1662 0.401366
7438 32578 0.224531
21927 17183 0.398744
10322 11663 0.117612
272 11490 0.138075
6575 5151 0.422919
1391 10731 0.591237
32743 32270 0.464922
22399 16689 0.833
23982 18554 0.424543
17551 30459 0.0276993
15611 2193 0.458543
24251 16174 0.398983
31420 11980 0.637448
15305 25839 0.140477
186 14084 0.0738042
20633 28559 0.820356
2420 6685 0.751303
27744 2223 0.651974
12604 20084 0.307803
32626 11143 0.670626
6557 11431 0.944437
2506 14743 0.933182
18894 29798 0.796721
15373 5179 0.998329
5902 5277 0.0161546
25799 15167 0.261527
13524 21885 0.962387
27272 31908 0.928551
24660 6460 0.144929
12508 19421 0.676475
189 2380 0.224028
28125 24259 0.978532
25615 29740 0.98272
25836 8201 0.649687
18226 13132 0.34475
10360 21124 0.260019
13441 3789 0.833744
4679 20814 0.640296
15528 17948 0.121922
13210 10509 0.339477
3311 1948 0.663396
30610 4553 0.113017
8774 13305 0.950615
32077 13629 0.959697
17559 1250 0.965178
19 31081 0.949487
24854 27623 0.519444
5959 13920 0.919475
24784 23003 0.28582
21953 29456 0.895574
5306 19014 0.699554
14067 394 0.376589
2847 1021 0.481271
23238 23281 0.541783
7601 12109 0.773376
31382 197 0.281594
8309 17321 0.627373
29619 26543 0.197814
31481 24786 0.793361
29743 6480 0.01868
21444 22066 0.271012
29686 10188 0.955269
9247 28684 0.433029
10544 2768 0.283496
19301 27639 0.300441
13503 27063 0.123133
27013 3213 0.152471
24981 26777 0.844568
12269 2433 0.718343
29106 30500 0.999525
20924 10711 0.933693
17336 26577 0.318014
19474 4989 0.944514
32515 14223 0.0622736
30105 31433 0.832908
32428 12055 0.0681545
31991 20812 0.892774
23005 18158 0.00582229
3849 5308 0.29174
21680 24327 0.0721077
15997 28125 0.268364
13593 28246 0.10393
25265 20059 0.796548
12955 19849 0.544194
23628 31944 0.112788
11421 21734 0.490763
16293 18908 0.358459
4080 18044 0.448026
31830 3692 0.624751
28689 30083 0.88628
1170 27256 0.712566
2041 561 0.145559
22593 8658 0.675072
21057 16847 0.0317174
1127 6656 0.299698
23045 27502 0.834825
25527 27558 0.97609
15725 20063 0.0698919
19145 24642 0.0769337
6410 17596 0.0165013
11578 8628 0.191504
5593 28029 0.0142865
4580 4367 0.272157
24574 2645 0.00811605
13709 7170 0.251992
14847 995 0.733923
15656 2763 0.584098
9692 1161 0.230557
6796 17701 0.207104
31679 10949 0.363248
29165 29964 0.215489
32096 5438 0.930473
8520 3398 0.705396
21815 3629 0.229812
11834 21283 0.902688
13606 14838 0.109683
22563 17109 0.812896
14121 28816 0.244661
26891 21545 0.240336
22693 17875 0.809871
13948 5949 0.00332097
7665 13028 0.355561
5991 24884 0.411342
9809 31093 0.939421
29794 21423 0.00666733
30008 15755 0.855884
19456 5389 0.621058
4192 1233 0.409774
18543 19548 0.361387
15696 12375 0.967138
13576 10550 0.0774455
10324 4975 0.779325
28678 12763 0.29271
2768 14882 0.0578181
10350 18900 0.659336
27049 23334 0.186136
6957 4475 0.261922
9806 13699 0.860283
12483 25033 0.57538
28419 9001 0.237557
20147 10867 0.0133483
17925 631 0.51488
16542 11705 0.481162
22133 7140 0.666852
5854 10914 0.948135
545 22106 0.127954
4108 1803 0.209918
28721 1066 0.471765
31027 30257 0.516257
10092 5264 0.155037
32678 32370 0.396097
1903 25423 0.730946
29592 27203 0.00242458
14913 32572 0.562824
21328 6133 0.824113
19296 5919 0.0530974
4148 13981 0.422869
5313 29686 0.194604
10085 13239 0.564906
3999 30947 0.715131
29886 18594 0.134032
30525 16661 0.384436
24535 2550 0.671816
30481 31358 0.985413
25202 15612 0.912363
19093 31090 0.285439
4218 17822 0.677604
6349 21577 0.11898
32169 16766 0.0256362
12571 31353 0.780637
9010 3059 0.626692
32419 3742 0.304197
4461 3201 0.803417
22484 9780 0.380468
1574 1203 0.948309
8424 23313 0.160334
13818 13473 0.384772
15115 17979 0.690586
18100 25749 0.837984
3364 17901 0.18735
22783 16428 0.873952
1891 22815 0.282338
1110 1960 0.761433
14619 2501 0.82782
31632 15035 0.643432
22550 30790 0.00573885
11078 5828 0.53421
10818 23443 0.282523
11357 28550 0.663628
23424 12825 0.367974
28967 14935 0.87972
6980 7492 0.0772978
27461 4322 0.450268
18243 1794 0.429306
7386 7525 0.272052
26004 16003 0.0168715
8620 7195 0.306429
4409 17972 0.379208
2386 24343 0.0162538
24722 32470 0.651833
1486 11203 0.955159
8407 27442 0.350497
8137 8905 0.494446
11141 5059 0.183724
30385 28553 0.617989
29902 28907 0.388024
22206 19751 0.749035
21263 32468 0.527151
5563 5152 0.302011
21113 32047 0.293282
10332 18216 0.738606
2701 4181 0.154254
19792 9816 0.444725
15306 20228 0.692301
30693 24385 0.438027
15338 6312 0.701995
10452 29477 0.505458
28447 26285 0.56278
26852 26162 0.761013
18139 24689 0.813365
4739 18408 0.917979
20285 15455 0.135976
24924 30896 0.972239
19471 11 0.870242
19757 21781 0.333166
16353 20100 0.193831
15787 3475 0.395399
8944 12899 0.25009
30414 26242 0.0231339
26828 17286 0.909248
5424 32494 0.183371
18521 24124 0.496066
11707 27180 0.0449123
19539 30769 0.0779187
24697 2574 0.885758
13946 29526 0.622774
11023 26569 0.143182
14246 23321 0.623108
12677 32087 0.676987
27948 31746 0.125661
26577 23131 0.507206
28872 30284 0.155172
25720 5883 0.628662
10395 27716 0.69202
32072 24348 0.82729
11660 14473 0.248629
14142 22390 0.823076
5253 804 0.0735204
8754 2569 0.633828
20789 30212 0.138012
1059 3966 0.773376
32474 6628 0.664767
20649 1996 0.462883
32087 25162 0.113686
17946 21235 0.765519
18183 9816 0.005492
16211 18058 0.143453
31348 13212 0.599972
17634 15128 0.817572
8039 8369 0.279293
24463 15204 0.735973
14133 25557 0.623416
12070 22586 0.307192
23062 26685 0.71386
25000 20419 0.00025694
2216 22788 0.838838
2204 8116 0.204942
30263 10296 0.517474
30464 2989 0.310896
27589 15670 0.0955883
16472 16150 0.513789
20635 2403 0.623765
16071 30634 0.936005
10693 22078 0.207267
28884 19529 0.311998
24450 12417 0.145531
29571 12906 0.538831
18904 5393 0.761396
10866 8657 0.757171
3672 5664 0.230606
9267 30629 0.224764
26671 30775 0.667923
15838 18522 0.358166
30758 32007 0.205186
27130 31389 0.338411
18412 25884 0.678592
940 9768 0.280692
30818 31858 0.00135031
7948 22854 0.226384
4039 22879 0.561342
30304 4506 0.0788589
8555 31056 0.455043
29555 31330 0.62234
14791 7256 0.145492
27110 27803 0.790554
16088 18755 0.308947
22637 30525 0.577553
16812 27194 0.81181
28264 22911 0.996873
5196 2595 0.524061
1461 13022 0.398329
540 28140 0.803407
9048 18736 0.470194
19797 7896 0.514021
27531 25820 0.255243
8204 25759 0.0567663
25393 5207 0.295389
24935 19168 0.318082
7799 30210 0.443016
4989 27141 0.163808
30414 14863 0.0967369
15961 10466 0.790994
28153 3582 0.76415
11342 12012 0.737904
4253 14678 0.381616
8929 31189 0.436715
8167 4789 0.325824
15108 26487 0.644619
17656 29906 0.608468
28384 18326 0.854154
19555 4147 0.993595
24500 2463 0.73965
11266 9206 0.707795
1680 14483 0.313062
13126 9439 0.270195
16075 29838 0.48737
8249 23059 0.607246
11644 16006 0.913067
22249 16713 0.457353
7439 22798 0.775872
6237 31557 0.973441
28778 15729 0.15947
20772 7925 0.351954
30094 18672 0.356004
5730 30137 0.378515
13276 12929 0.903307
19309 19543 0.308424
30750 23344 0.741538
18685 25388 0.509004
31038 27516 0.0684422
9795 130 0.694417
18497 12484 0.36258
8355 5030 0.00949993
22472 31069 0.388105
18016 12763 0.603555
14986 14436 0.350769
12315 16504 0.789174
32366 26331 0.847527
19857 31691 0.187028
22846 30356 0.717511
31259 27446 0.89856
12459 14035 0.263078
24280 12047 0.0398415
25831 25940 0.260254
31460 32400 0.247735
12361 26772 0.563111
12511 1620 0.668996
25951 21931 0.975978
22958 12126 0.334493
24571 18259 0.548719
8930 2844 0.774909
20264 18348 0.324795
28920 12430 0.68307
16056 6457 0.205868
29107 845 0.0651115
12313 20312 0.485306
2720 2378 0.972075
17690 7434 0.251027
23956 13537 0.918781
5105 9534 0.418483
6061 14949 0.799176
21206 19855 0.974678
24009 20857 0.329423
18538 14568 0.371978
1951 19813 0.496927
7279 14607 0.73181
32225 15791 0.506624
5225 31915 0.787768
10408 13826 0.357283
15522 11777 0.265802
21972 19011 0.710092
21920 28673 0.659936
18343 4923 0.0704448
1254 10339 0.272079
23647 23695 0.368155
7000 6764 0.500649
1598 26250 0.449381
768 22219 0.245643
3357 30816 0.583299
20724 22388 0.339488
29136 6001 0.335172
28611 31411 0.760534
23292 14641 0.863975
7665 20617 0.661974
12648 3961 0.34573
24797 17414 0.557452
29870 23068 0.113925
17130 28228 0.0560019
5130 32471 0.908041
21574 9903 0.226566
18174 17247 0.964451
10083 22542 0.261104
6673 19368 0.425792
5796 18410 0.757346
15721 6827 0.515411
22949 17448 0.325558
4535 26801 0.114147
9423 4360 0.819905
14483 17365 0.0857014
24223 13178 0.62506
28047 13990 0.386449
10421 1635 0.215261
26251 4190 0.0678463
30091 29487 0.52174
5498 28786 0.603226
15552 21382 0.701526
31258 13251 0.62842
16403 5326 0.647633
17657 20824 0.949473
31438 25495 0.258542
14427 18813 0.686368
8390 6882 0.612456
21194 14929 0.0561507
5129 15102 0.392865
24102 29798 0.658643
20966 24056 0.761009
13795 13210 0.808367
12296 17197 0.746428
11853 11456 0.124983
30418 24786 0.369999
5435 20624 0.448326
2425 17736 0.489433
29397 25377 0.671485
9309 20394 0.505258
10165 19762 0.823312
10570 12766 0.419408
31420 11791 0.25772
17161 29734 0.958617
32130 25570 0.430281
8413 6543 0.497193
24594 18434 0.125959
32048 13986 0.599572
18834 6273 0.0454068
16909 30763 0.961578
26577 23323 0.156383
13203 28592 0.839612
10285 7281 0.123002
10409 2695 0.267977
14694 17565 0.800677
14445 22438 0.609659
15547 2502 0.788145
1796 2205 0.947927
413 25208 0.719977
13120 3287 0.35381
3184 26805 0.892447
12576 11331 0.713925
17272 27523 0.261898
21262 21285 0.418777
10911 7588 0.659065
24467 4255 0.104291
12486 4206 0.428767
16632 23872 0.506721
12634 10091 0.512685
26109 17774 0.405431
12623 16257 0.276642
11844 1723 0.467248
20705 22174 0.936333
4769 29778 0.979453
13388 28931 0.542802
30795 26215 0.777104
29109 11165 0.670601
27158 13228 0.500856
21089 16146 0.564347
6111 15568 0.263073
28356 2557 0.626325
16954 25428 0.132873
14619 30468 0.427574
10318 524 0.759753
27538 15447 0.153902
32250 13388 0.428883
20477 30413 0.476537
858 30979 0.50978
6604 1906 0.281753
20478 17926 0.716881
5440 31781 0.856319
23351 27003 0.15488
4468 28913 0.215646
15292 13400 0.831342
5293 18083 0.800135
3358 14840 0.982632
15196 6832 0.954093
12534 23472 0.988691
28926 11336 0.306934
13590 13660 0.651201
1814 18946 0.845685
23960 2288 0.995368
15381 3027 0.440436
20343 7318 0.761729
19156 4962 0.405677
27937 4508 0.474901
5310 10317 0.948882
22132 27591 0.118394
18029 11962 0.293081
16694 13008 0.564138
24072 17995 0.395489
22380 3456 0.196666
19063 23007 0.721969
8488 23791 0.131487
17477 9142 0.939294
2866 4656 0.537258
5468 24899 0.82934
2926 18355 0.261957
21111 7471 0.133802
21446 20679 0.867372
8661 14580 0.948402
2893 28601 0.0653231
27024 19819 0.546056
16790 19320 0.55662
7829 9523 0.639325
5567 16734 0.574816
3589 17801 0.682956
2595 30354 0.996845
28227 26872 0.094692
21472 5346 0.893553
3226 24904 0.766363
19500 22003 0.45461
18950 17497 0.0196103
13261 29116 0.145344
25373 31315 0.259739
26707 5597 0.149837
19738 24306 0.112625
27593 23432 0.665523
10417 1639 0.510327
13892 9092 0.612229
7061 24793 0.965425
21334 12436 0.691413
15009 10642 0.635562
4569 19153 0.225984
31371 8643 0.382506
6199 12126 0.937065
18029 9546 0.651974
9567 27500 0.83092
25943 11437 0.794452
28459 29430 0.0168953
32678 1660 0.531955
16950 24673 0.0918162
3661 24723 0.481474
12570 15730 0.371495
28225 28230 0.0338772
18503 13150 0.901279
30263 3035 0.638971
18637 28905 0.402979
20385 23156 0.00632575
29238 15454 0.225773
8328 15561 0.627637
19523 14977 0.237493
18716 23624 0.630204
220 28942 0.546322
26702 14919 0.0973636
30671 11899 0.894616
190 15293 0.732206
1607 32097 0.999161
24023 26330 0.212128
26915 1337 0.17755
24656 10924 0.295509
31879 24289 0.940515
2076 28925 0.599213
30071 17545 0.759235
30737 8569 0.530442
727 2148 0.203783
24293 10264 0.539045
10281 9531 0.0638454
19862 19703 0.845796
29384 1052 0.0253515
21740 14344 0.752884
11449 13860 0.526495
31267 28709 0.163619
3770 20312 0.408719
200 10459 0.624908
14770 20099 0.558778
22763 15802 0.368927
26257 13387 0.923393
1962 9648 0.480237
19292 25619 0.470215
173 28239 0.369598
4745 18058 0.967014
111 31027 0.047689
430 17048 0.271481
30516 28825 0.746932
22840 21106 0.237942
6207 25097 0.551461
21062 21098 0.396935
7499 9142 0.609724
1174 32529 0.521976
5628 21922 0.145247
27051 14075 0.3262
4909 23621 0.147803
9771 21560 0.802009
4935 9728 0.804358
23495 22836 0.266053
32044 19122 0.687992
30358 25610 0.396097
22794 4320 0.872647
24985 26568 0.802476
28301 21704 0.565881
12377 6436 0.847249
29266 31290 0.236109
1950 10002 0.990995
32145 8289 0.791605
13282 13294 0.764778
14348 6163 0.382974
32446 18984 0.68059
30395 23607 0.19133
11744 11105 0.915435
1432 19440 0.974695
26853 32383 0.943417
17327 32210 0.627637
17635 31529 0.632017
11467 23822 0.320029
11135 32583 0.543926
10131 12361 0.996873
4087 1738 0.798246
6026 17669 0.429877
15688 17005 0.0218909
762 22083 0.468014
14877 19435 0.245438
7798 16774 0.318112
20462 5054 0.126812
10828 23347 0.254595
25474 18280 0.959493
25524 13501 0.894616
30013 30335 0.743132
28417 16761 0.65304
31801 32435 0.997078
6446 9425 0.524262
4511 29346 0.591732
17705 32358 0.0301392
15410 29327 0.0137881
5503 24603 0.00766447
29332 27873 0.799876
7259 7951 0.836722
8966 29918 0.81631
10514 27880 0.364467
23913 3555 0.773552
13243 16511 0.909796
16292 1893 0.868508
28028 21258 0.0990629
14825 2360 0.479908
12171 19722 0.728233
23575 28635 0.789293
1902 13805 0.0112501
14812 12302 0.243111
27926 14469 0.265924
15925 25683 0.865041
30933 32037 0.123902
30482 15780 0.848786
15859 6225 0.396797
32234 8886 0.0571705
17206 27867 0.839612
4522 17628 0.493028
18912 29128 0.183313
27009 29558 0.576949
18821 17034 0.900344
24049 29986 0.481006
4265 22345 0.0849365
32364 17968 0.848467
1618 31560 0.053386
18168 19195 0.0052177
13232 20770 0.908168
11189 5032 0.804728
31311 25246 0.0453083
23359 8047 0.350096
4807 19592 0.323849
30848 6363 0.136421
23459 10279 0.470318
12011 19620 0.112137
11335 30808 0.637825
20417 30365 0.888332
10730 12771 0.371017
15714 30117 0.211822
4269 15835 0.685673
3919 30675 0.39443
11131 8808 0.804898
28104 16902 0.315879
30921 17450 0.960254
2047 4661 0.0678463
12648 8107 0.316562
30591 4452 0.633071
17442 11586 0.0584154
25528 9523 0.193785
10677 4523 0.695599
1125 7530 0.222446
13135 8199 0.89062
4303 27584 0.552322
9095 1629 0.909022
20000 3028 0.160853
30071 14799 0.745011
22756 24606 0.177925
23393 8504 0.95119
18492 21416 0.106972
12717 24365 0.989152
25690 27134 0.866677
820 23498 0.270818
17512 2539 0.641655
12424 3200 0.998023
17609 923 0.148946
16451 492 0.826486
13678 24092 0.400113
6476 18043 0.449819
12950 29691 0.263311
30962 23574 0.456409
3715 13095 0.348899
16270 31460 0.25805
27860 12096 0.883195
2267 17124 0.989546
28598 29512 0.00969185
22850 23657 0.64692
24507 2537 0.182966
8829 15933 0.272052
471 15880 0.176722
31727 359 0.939615
273 6092 0.299287
14403 12439 0.798492
627 12391 0.662597
6535 25377 0.910597
27578 24213 0.408693
29377 14482 0.888504
23871 28676 0.921514
4926 23149 0.00526157
15188 7880 0.627626
17697 574 0.30039
4522 18405 0.729871
4477 12224 0.757163
17503 6120 0.21603
679 2130 0.842265
22741 6004 0.281495
8180 22715 0.797874
26846 12234 0.652377
26309 31192 0.140604
17892 5519 0.257075
23898 12560 0.177202
28621 4459 0.965566
28733 12113 0.663558
30653 4301 0.451657
24278 8242 0.136153
10350 22028 0.316966
10598 19196 0.972428
27086 27241 0.859111
5354 8791 0.723518
5662 26920 0.835439
8232 7636 0.264627
14933 14644 0.594362
8442 4728 0.733641
25814 1226 0.0641716
18937 3998 0.895574
17048 27099 0.898035
8854 383 0.333091
19324 19620 0.465426
11590 26879 0.52901
14758 9291 0.665969
14118 8328 0.337034
9468 12763 0.717219
990 16472 0.968899
23074 24753 0.113988
4922 21891 0.497352
1703 18595 0.671846
24159 6299 0.262825
18385 21308 0.0617797
25708 19210 0.556596
31631 30153 0.00109946
15347 21225 0.712217
9310 30801 0.844444
8034 26958 0.472134
26331 20213 0.530773
17747 15643 0.0631725
17458 14250 0.942525
24672 22222 0.60534
22693 19804 0.671812
23638 2922 0.993196
24299 11140 0.806221
31944 19070 0.149235
1339 30709 0.255179
24069 31880 0.694064
14625 5608 0.67111
20008 8173 0.464348
101 24647 0.65162
15202 8706 0.104927
6536 9492 0.799426
20706 501 0.0508983
4192 5670 0.596253
29705 1882 0.930722
6848 6073 0.882601
31795 3268 0.316806
10385 20351 0.481668
6321 6830 0.570625
31092 16146 0.453264
11280 11670 0.550673
18986 8328 0.153952
12305 15090 0.987773
17573 2964 0.750677
5745 28899 0.853232
18277 8833 0.269314
14052 4597 0.88709
1221 31986 0.0489723
22928 2849 0.878951
5804 4253 0.67629
7202 2540 0.461328
26617 1853 0.236043
16841 646 0.382073
16542 10197 0.0326945
3333 16482 0.117391
28089 4226 0.481162
10409 171 0.282801
23658 3698 0.525477
31050 21523 0.292419
8493 530 0.676957
32421 24667 0.63784
27211 31403 0.354327
25724 29767 0.915825
26341 19502 0.090629
17852 7287 0.07594
24702 28825 0.299183
23617 10981 0.378243
14063 30620 0.193103
15081 10130 0.0422415
26905 30079 0.709753
32218 1536 0.653179
18565 656 0.74343
15777 7130 0.303125
6292 7934 0.960137
18087 32478 0.257799
9288 29351 0.904859
3834 9994 0.338837
5443 24136 0.0640354
21571 29579 0.0852727
14457 5250 0.357623
21513 3915 0.532795
1511 28987 0.199201
28598 2010 0.198875
31370 27291 0.481304
19235 32290 0.36777
26716 19479 0.641834
5905 16895 0.520309
26920 19976 0.518726
24345 29172 0.19845
13514 8773 0.212109
30877 3338 0.00120659
9482 19603 0.619316
16836 7566 0.828213
15103 21833 0.0398431
5648 24851 0.248373
5234 9747 0.0975432
11250 6660 0.305121
6230 11996 0.0485286
20872 9711 0.607978
28439 18043 0.597136
4987 1717 0.470832
21838 287 0.388024
9468 12248 0.383352
29567 8100 0.769849
24074 31418 0.597616
15734 6635 0.754073
29217 17705 0.569608
28637 3934 0.809185
18775 2354 0.670601
11919 7710 0.600785
10726 8265 0.993495
341 24546 0.912842
2126 20583 0.405992
6736 5164 0.456825
15961 16834 0.126259
15355 26604 0.839784
15188 3544 0.981016
24977 24705 0.576581
6517 19620 0.763337
13521 1204 0.824969
21209 57 0.482655
3362 18969 0.328895
14445 28937 0.324925
25347 28535 0.94009
23193 30207 0.0252207
21540 30373 0.567798
16750 4933 0.373186
4910 4724 0.357924
29952 27480 0.901389
20282 20029 0.159563
25607 8065 0.399538
13524 12044 0.939796
19523 21035 0.939667
29109 12631 0.440142
22898 14539 0.274714
9428 25895 0.0779297
24812 12521 0.676367
8391 30680 0.965834
7274 28636 0.630438
14094 23846 0.88043
30443 19749 0.249817
19880 24946 0.00190733
32343 407 0.564983
22779 9108 0.658692
20283 17560 0.548083
18892 24514 0.986111
18017 7155 0.976447
31680 26942 0.463794
23529 7141 0.00333367
28192 2086 0.089547
25357 27951 0.322898
11415 23394 0.10431
24406 7293 0.667927
24235 9266 0.055913
20970 14521 0.101453
2120 13963 0.467236
29073 27555 0.555245
1354 12726 0.450175
8480 11599 0.821334
6035 6915 0.889942
32386 25623 0.453684
11133 2778 0.0141521
28046 5606 0.752086
11395 10221 0.325952
17311 31682 0.441541
4670 373 0.721647
2628 22248 0.264304
11922 31772 0.0118058
7625 4824 0.947126
11085 16439 0.0928334
20957 24974 0.868714
10017 30160 0.127018
12043 31379 0.804604
21498 18467 0.773248
22209 8518 0.544403
28009 4214 0.0221761
4084 29176 0.294397
23570 11344 0.591922
5474 26698 0.321584
24913 262 0.138464
12611 12938 0.983451
28492 24389 0.0742968
8019 30416 0.783049
16552 25322 0.645389
22769 20718 0.447394
5983 15842 0.167419
7673 23406 0.278618
1105 22129 0.513035
29735 16829 0.596909
26840 17539 0.945719
28185 17272 0.192661
28598 6122 0.00488792
29579 14843 0.136266
4082 27608 0.326053
12712 28207 0.894808
13704 22115 0.360387
24666 9779 0.360698
17880 24827 0.00969185
23169 13702 0.511867
20496 20970 0.860075
23409 29536 0.826266
6402 25674 0.209547
15985 23881 0.200675
28203 11539 0.310162
13396 25249 0.8799
20514 30178 0.50158
12417 17693 0.615686
31396 6724 0.332104
28391 4963 0.261957
23971 4802 0.355946
6415 10196 0.473828
25030 4857 0.643524
4295 21673 0.094804
9463 24776 0.0291644
27949 6616 0.756307
13141 29465 0.984056
28115 10840 0.669116
1519 10136 0.888264
30969 10836 0.834401
30712 19183 0.218296
4379 2706 0.947927
3039 30513 0.757984
7247 28398 0.359687
17768 11362 0.113117
13002 29713 0.58104
6030 20066 0.831342
5936 19359 0.166267
4913 1680 0.0844744
21223 15621 0.00345758
3511 24030 0.0684422
3248 30706 0.190612
4270 9105 0.861719
24793 9099 0.164448
23319 17306 0.299239
4160 26691 0.350926
1368 15031 0.145911
20583 31380 0.040948
5636 21826 0.638373
30678 30648 0.291499
13233 4493 0.778161
11560 10859 0.116818
20240 7752 0.0533608
246 8567 0.296795
27095 1183 0.500783
20621 24945 0.183353
23201 7092 0.317751
12708 7712 0.847853
19597 16932 0.188258
20452 30685 0.546942
11474 5092 0.418089
21356 23141 0.030332
4172 28196 0.134331
5470 12143 0.0603899
32207 14531 0.426408
3738 1819 0.0759241
1303 17120 0.51743
2562 30916 0.918004
5733 17693 0.0460244
28974 27224 0.845356
5707 6586 0.700337
24412 2525 0.66543
28160 14219 0.239927
26519 31910 0.7028
31259 25355 0.869291
26906 7292 0.648128
29746 6016 0.228589
