%%MatrixMarket matrix coordinate real general
% Random matrix generated for weak scaling
20000 20000 100000
2366 14163 0.574821
11238 4774 0.801595
12125 19019 0.480437
10963 3238 0.602551
14245 8270 0.466216
10801 710 0.862715
12309 3506 0.0302955
11676 8194 0.364258
18428 5670 0.852869
5757 2238 0.199113
678 18687 0.265098
9723 11664 0.494266
17439 17265 0.466811
11641 19789 0.93744
10882 10341 0.674824
16933 10709 0.0277323
18162 5196 0.0102422
3530 12844 0.223186
649 7287 0.169388
561 3352 0.165729
12607 34 0.196074
7608 6959 0.590868
2872 2328 0.192186
733 8482 0.715754
5417 2807 0.257604
19053 11834 0.801179
18309 19790 0.160421
10350 3768 0.995419
6629 19451 0.940942
13498 10156 0.647203
8643 3150 0.0128978
17727 11637 0.203989
9330 19240 0.430903
5987 15434 0.838362
10810 11424 0.234372
9697 11770 0.66359
5455 12086 0.0605431
7480 2890 0.316666
8063 13656 0.801347
893 9585 0.114231
1728 7949 0.132463
11051 3213 0.548297
3890 4947 0.0750591
5195 9368 0.830385
4372 11425 0.975786
3390 2540 0.183878
18593 4729 0.829629
13517 6389 0.0107628
4794 3575 0.00278123
12437 9339 0.682572
4991 11469 0.465321
16754 1354 0.907395
8507 11559 0.668047
16671 10579 0.627571
7493 10587 0.246125
11455 7539 0.354327
12657 8525 0.108736
1216 988 0.187301
17029 2245 0.0956553
8166 8714 0.28856
14192 4985 0.688213
10357 11848 0.768233
177 2982 0.557452
69 3419 0.22781
9476 7080 0.494857
11606 17041 0.830387
3792 18087 0.200925
7205 661 0.992453
781 3963 0.31673
10655 542 0.135144
1472 5308 0.959039
1448 4163 0.328895
6883 6122 0.676259
3645 18484 0.288436
17910 12368 0.636521
13153 507 0.718574
289 12664 0.815734
19634 709 0.310709
17814 3368 0.86312
8177 5384 0.0753225
13431 1568 0.745248
5249 3470 0.80712
17773 6450 0.503824
13279 4521 0.193503
7495 9481 0.8815
8781 5374 0.896087
8155 12425 0.402592
5773 8276 0.539397
16887 11841 0.379181
9946 6535 0.535131
225 13306 0.0982476
8793 7589 0.962945
15107 4805 0.298097
1504 12039 0.932699
5085 8490 0.799818
2505 4718 0.157103
1831 282 0.24575
16744 6210 0.0470544
5464 7652 0.410282
3539 1537 0.253643
4903 4375 0.248629
3539 8804 0.0428808
1761 318 0.809201
2053 714 0.801755
12425 9579 0.85414
814 3732 0.422329
7097 5661 0.750179
17814 9728 0.519552
8361 1017 0.792243
15549 4672 0.0631716
4229 5078 0.49521
3216 2242 0.189
7996 7089 0.513789
7712 13073 0.233815
7605 18659 0.435312
9305 6972 0.0869226
2736 6148 0.666523
4457 19531 0.677926
19006 7576 0.653107
16772 16344 0.00126968
18845 15705 0.324137
12682 16865 0.0537299
8556 13556 0.600919
16866 14459 0.817549
4880 7819 0.110786
17918 6623 0.123902
4072 17563 0.170567
6568 18050 0.0315414
12208 9902 0.0530704
349 4674 0.696093
8374 5835 0.0393385
16914 10938 0.129118
7847 10675 0.720842
8506 15429 0.751303
14404 17240 0.692896
1277 10399 0.0728681
17102 11761 0.476398
6223 17140 0.982445
4515 9088 0.0180681
7098 16485 0.340865
7405 6097 0.195552
10783 6935 0.970997
4544 14228 0.407928
18783 10179 0.853466
1399 13710 0.900889
15921 18006 0.0300006
5529 12722 0.488464
8920 8927 0.964006
14674 62 0.0780726
18944 4584 0.682572
1461 4797 0.717144
11915 11773 0.874542
7112 14452 0.44725
7680 2155 0.658546
7253 7466 0.818769
7580 3823 0.530716
6961 11465 0.832187
11599 9605 0.109813
16509 10898 0.590833
19801 9167 0.278421
12238 6338 0.743746
10786 4830 0.618563
2230 15150 0.957271
11437 1331 0.926702
14345 18523 0.282104
8594 14212 0.125863
7036 171 0.159978
19774 8027 0.411667
17520 11614 0.772675
2144 6819 0.0442916
3583 18180 0.90995
13995 2585 0.497037
12039 9904 0.501153
7579 18114 0.487075
1220 8240 0.255929
19344 15441 0.526786
19397 2106 0.78238
10515 12470 0.345752
12542 10558 0.22544
10624 11847 0.0339467
14048 2042 0.0929158
5769 2801 0.754488
19198 12512 0.31864
9021 7197 0.144857
16092 3928 0.070948
713 1396 0.817151
7673 4535 0.672354
6377 19842 0.88749
11272 9428 0.219322
9373 2043 0.862194
9540 15374 0.459486
10668 4460 0.366091
9261 6337 0.796959
11324 7671 0.271012
1557 10525 0.337356
10267 7984 0.71496
1937 16029 0.598056
13301 714 0.511288
13728 2980 0.576971
2705 18395 0.42962
10133 17909 0.315935
17615 10347 0.768742
14608 10136 0.432907
7752 10508 0.307964
451 9115 0.107215
3323 15026 0.579412
11624 8263 0.686527
4163 2587 0.818574
9235 5813 0.290298
5149 7675 0.1026
18391 1742 0.883275
9282 810 0.736058
19137 19079 0.232532
3056 19655 0.331107
12248 11074 0.212606
5613 4669 0.194636
17129 16986 0.2523
15095 17788 0.0501893
1206 16905 0.439965
10035 13752 0.673631
663 2903 0.672629
6540 17843 0.619277
19629 8109 0.762451
2636 7017 0.927918
11527 1360 0.896331
3062 18339 0.977365
12838 15412 0.0883367
4381 10040 0.884805
10028 12086 0.230825
12336 10809 0.657151
2889 18026 0.80013
16835 1144 0.0927779
16110 6142 0.993515
1488 6594 0.869413
12236 6756 0.478731
6982 8607 0.939727
9 3169 0.368423
13506 8590 0.778628
3706 5046 0.00292809
13106 4244 0.0456974
9113 16844 0.784327
13947 2610 0.375416
4250 3084 0.489224
4379 8111 0.644464
4251 7133 0.483143
14843 2766 0.143437
1596 8371 0.522898
19978 3723 0.37535
4818 8937 0.723661
2473 3501 0.763354
12080 6255 0.253982
8320 9187 0.603709
5941 9694 0.0518953
11138 6082 0.629924
8806 13608 0.738903
565 9661 0.447334
4843 6282 0.343956
7526 8238 0.0292769
6407 10589 0.214336
11913 756 0.349961
12568 6213 0.812839
5852 18361 0.164966
16751 9080 0.103849
15889 14093 0.420768
16161 4462 0.641659
12387 7805 0.689777
10666 14323 0.740716
7419 5118 0.0682825
6298 2184 0.0208233
4231 7409 0.124194
6868 17282 0.69858
4376 14454 0.183823
16011 868 0.598945
13144 6183 0.453769
8567 8388 0.52182
12438 11389 0.464879
667 8852 0.189735
10181 4578 0.410642
985 2012 0.384155
8142 9046 0.836675
16294 16979 0.00113806
2121 7730 0.056514
3552 9680 0.530919
10692 2629 0.326298
6447 9619 0.93824
6795 17218 0.920107
906 2218 0.480561
11899 10788 0.280942
405 19258 0.848706
13692 11284 0.850767
477 11028 0.0272156
19180 1055 0.773248
16489 5465 0.121544
9755 13339 0.718165
4984 19725 0.615541
1339 7707 0.913043
7086 12065 0.940553
13277 1739 0.768985
9894 946 0.984761
18692 8750 0.342982
6813 4817 0.687023
11138 1996 0.538881
12765 9841 0.15439
16937 1331 0.575046
6443 18372 0.631292
9079 10458 0.55635
12194 3498 0.953426
15997 2745 0.0901495
606 7897 0.339195
15772 849 0.442992
19972 11495 0.119965
6659 16525 0.401031
7881 11735 0.797693
8931 2566 0.686514
4817 5571 0.374126
774 10358 0.756948
1636 4030 0.449939
4922 19750 0.770118
12248 14228 0.421085
18511 10890 0.118382
15096 742 0.210697
14408 4738 0.0350307
141 5977 0.128153
3086 3661 0.885012
10557 4305 0.955253
404 2266 0.00258847
12508 10619 0.551854
4918 14863 0.891912
14563 2987 0.856179
10531 12563 0.577653
7205 15628 0.427289
7221 12537 0.608777
15260 4410 0.171171
10472 11985 0.273762
11857 15056 0.651013
9170 3473 0.265626
14561 301 0.233216
4521 11786 0.358352
9309 17611 0.837595
19630 8616 0.442067
4392 4052 0.399933
12316 4168 0.0736723
4131 7008 0.722973
6996 8153 0.752002
16759 9550 0.566812
16544 9502 0.979384
58 5277 0.253618
611 19594 0.059758
340 17893 0.638286
19007 11433 0.917421
14589 18912 0.774909
948 1156 0.67533
2323 7041 0.11482
3780 9942 0.378023
17802 654 0.0309811
9654 1088 0.748121
13124 13379 0.451534
10579 1622 0.372833
473 4257 0.527773
16264 2033 0.118713
15059 5008 0.0603525
19481 2513 0.934211
1235 1482 0.592538
17157 2847 0.93369
14617 10687 0.742972
17767 1833 0.681305
7812 2256 0.53949
7348 5009 0.351577
14142 14344 0.0400857
9625 1730 0.64283
18937 1281 0.207873
292 10940 0.149185
10836 8691 0.18539
10675 6819 0.250147
15103 11605 0.0411093
10283 15156 0.462848
4045 238 0.905106
1049 555 0.815435
12660 11342 0.38056
4901 7853 0.0102633
772 6924 0.761269
12513 11095 0.485753
2710 9497 0.445692
9096 12262 0.742234
5474 16025 0.921704
18093 12155 0.635454
4325 7232 0.980245
14583 9114 0.530855
10533 1289 0.0372585
12809 18573 0.986624
4709 11385 0.23033
12945 18697 0.286923
2978 16069 0.47794
1571 2168 0.193628
4393 12761 0.443583
13079 3090 0.519683
8985 19648 0.324795
2210 8966 0.626485
4813 6468 0.815373
2139 673 0.636274
12509 11618 0.294556
2868 5082 0.81631
610 5531 0.823577
343 4732 0.314
13356 13135 0.0624436
7205 2350 0.747523
9982 1392 0.762805
7438 1358 0.0591877
685 11735 0.35952
3829 4554 0.458581
1166 10222 0.143601
7134 12790 0.321907
7812 4785 0.612368
6437 2664 0.502899
11823 6676 0.608069
73 444 0.138961
61 7418 0.69371
10676 402 0.247647
3282 18239 0.574001
2410 7163 0.589668
300 9118 0.0507814
1984 13170 0.208139
528 18615 0.99781
2978 12133 0.759618
11222 1904 0.418675
19871 7186 0.0585804
2589 7920 0.691941
12594 15583 0.53166
4576 14028 0.785298
7277 15580 0.608545
6591 3108 0.0601429
8924 7812 0.681094
11672 831 0.880351
54 8651 0.00435422
5569 16291 0.595835
5887 6741 0.974786
810 18769 0.613611
18745 18308 0.552727
5194 2576 0.555062
15222 9155 0.859243
14146 2890 0.494036
7208 3466 0.862466
15256 9906 0.0616356
3021 19050 0.323604
10961 6241 0.222126
8472 9919 0.663791
3267 6896 0.214862
1824 5056 0.671812
957 10028 0.224983
5689 4775 0.578837
9589 8752 0.385146
4020 5097 0.566898
13844 16804 0.281595
3497 18712 0.513927
9893 12661 0.0131107
3311 706 0.250145
923 16318 0.88407
15854 4480 0.581209
5511 509 0.712342
15496 8998 0.889108
7130 1031 0.71152
4393 10118 0.89503
5680 18467 0.498936
11064 12660 0.412573
12954 13118 0.00665496
16771 3708 0.692094
2484 6132 0.0507814
9929 9199 0.414051
10486 13648 0.382215
11337 3298 0.672487
5980 7621 0.901786
2631 3960 0.497096
2645 2988 0.00820158
1319 17054 0.523975
12062 19488 0.32668
2432 16748 0.407058
13024 6201 0.360888
17473 7289 0.412343
12345 3238 0.725843
7431 12512 0.330383
10094 15014 0.597254
1206 6025 0.63971
1739 8394 0.288685
4803 11701 0.988015
14304 17864 0.0669245
12651 12656 0.423798
618 10323 0.762368
7420 7235 0.507756
5151 4980 0.701579
19335 8991 0.933452
9379 10937 0.571705
11458 166 0.661208
12703 16949 0.0553545
8873 10706 0.700552
5078 16068 0.449063
5170 18577 0.607698
12965 1003 0.971709
8862 18335 0.369551
4788 6432 0.581544
9050 19654 0.939056
8897 17487 0.180919
9401 11497 0.135144
7959 12409 0.429114
3877 6791 0.553251
9208 8962 0.213523
2773 6749 0.159938
13317 10971 0.196143
7430 11198 0.264485
2611 8703 0.108656
12379 13008 0.449727
2049 12194 0.0698776
17891 17335 0.575211
3015 14040 0.109438
5167 1729 0.113319
9863 7018 0.277574
2547 149 0.117267
10856 4319 0.135856
12711 6328 0.463856
5624 5239 0.890368
10513 10365 0.437946
7261 6869 0.790838
5307 7124 0.801758
10167 7568 0.954696
6021 53 0.0088747
5784 77 0.90581
19941 9162 0.850578
10039 9824 0.0127399
10815 13678 0.17731
13743 3989 0.193814
7966 910 0.798959
218 2159 0.168425
9207 6769 0.807805
2375 9471 0.680185
3842 10549 0.0533743
19450 11006 0.308947
4317 11506 0.954541
11088 1465 0.157045
12019 12985 0.864052
7801 7976 0.324353
10238 5900 0.621644
8714 9317 0.0968092
8172 4987 0.85513
11059 19474 0.257868
9595 9156 0.914084
11470 6753 0.0438731
10345 9098 0.577419
7935 3192 0.413914
3909 7911 0.685281
8440 10358 0.136213
15357 17765 0.956458
8177 12254 0.463855
986 1841 0.737907
437 6251 0.277039
7955 4800 0.506778
1221 14093 0.875667
9373 15153 0.810744
8544 7466 0.101278
16695 6424 0.837919
81 9371 0.20509
16581 9527 0.975741
6968 6023 0.385256
12709 14359 0.566079
1885 6433 0.316582
7380 8625 0.620618
5306 18083 0.695919
7040 2262 0.776962
12032 7679 0.2885
14394 12517 0.444982
3015 5539 0.78977
10903 8112 0.540745
18899 1500 0.640546
610 5896 0.11556
10606 6691 0.555966
6154 15617 0.220879
5508 10505 0.884453
10633 5571 0.922484
3579 11124 0.770708
12194 4753 0.583229
7672 532 0.346041
1373 7019 0.00386979
2215 8594 0.0258474
11897 14344 0.112247
6573 11910 0.394232
8658 3359 0.156086
2582 10810 0.468833
16376 12631 0.263165
10121 11883 0.156136
5762 9808 0.880285
7073 1783 0.583127
17706 18840 0.346018
11611 13386 0.979229
4252 10261 0.68667
2178 8347 0.829128
6603 557 0.114337
12633 16269 0.950419
10186 8668 0.414299
9008 6754 0.511406
11441 10892 0.194721
11847 5033 0.932483
12055 7649 0.475324
1510 19783 0.535411
19232 3916 0.80599
583 7156 0.0177319
15891 13533 0.252177
10617 19942 0.161075
8129 15583 0.637547
13425 5246 0.00133163
7728 12499 0.935316
8946 3033 0.212196
686 5372 0.387426
3963 5367 0.228339
5925 3023 0.493356
9955 6491 0.121922
3858 8264 0.670902
1520 7281 0.593265
16689 1890 0.419615
181 4613 0.296527
12544 3581 0.995841
18246 8339 0.582617
10179 4495 0.4141
18532 1378 0.446421
39 10278 0.0758047
2981 9536 0.639353
6879 2736 0.486485
2518 6989 0.468227
5462 4355 0.513359
1223 2358 0.677817
11199 11914 0.305251
10172 1851 0.708266
4583 1502 0.649758
5734 1168 0.317954
7361 11819 0.718437
5119 62 0.960513
5962 5852 0.745382
5979 3254 0.807
12712 7484 0.693991
4514 14971 0.587114
18004 12306 0.478971
1921 14525 0.716281
12205 11795 0.164048
4942 4004 0.510712
2983 11261 0.737867
1554 8722 0.413712
16577 164 0.710168
14565 12624 0.973415
12398 2843 0.836042
11152 5042 0.518055
12148 12729 0.795546
6306 6087 0.331692
14421 1013 0.112353
1423 10014 0.939965
896 3864 0.481304
5638 9961 0.00413139
9590 2772 0.246115
9141 5628 0.387948
6552 262 0.401078
5820 8462 0.78239
12164 5186 0.199209
3352 6293 0.2109
937 16968 0.545745
5931 7693 0.27933
6378 11395 0.213822
15304 19898 0.95828
2109 19271 0.369464
15008 7894 0.652058
3384 15156 0.65163
460 7719 0.704772
5190 5596 0.559154
7695 8140 0.185632
12181 11573 0.68838
3316 10985 0.228897
8383 15375 0.679117
4442 16808 0.881976
5461 3477 0.615065
5123 7952 0.943417
792 12882 0.301309
14858 5056 0.151295
12243 17217 0.659605
7077 4310 0.34475
17622 15462 0.175413
995 9848 0.768169
9476 16960 0.781036
2735 7576 0.160824
4949 2781 0.54877
19058 8455 0.790767
3410 10442 0.395447
5784 19055 0.208882
14421 15161 0.209862
7357 16834 0.603988
5210 1490 0.928861
11502 14755 0.877215
11377 16697 0.687752
2190 1039 0.445918
5150 1335 0.0398839
10197 12145 0.748421
9259 8562 0.384346
14584 13557 0.746571
14181 10580 0.617139
13148 18878 0.103209
16211 16765 0.186671
203 4993 0.0915806
10850 10315 0.342719
2644 4933 0.818751
8795 6546 0.0931889
18976 10457 0.823684
16706 445 0.417492
15085 12049 0.288266
2424 991 0.333081
8807 9193 0.289918
5976 3879 0.640465
19303 8571 0.373782
17359 13437 0.377176
3962 11955 0.480292
4612 8053 0.140426
616 1846 0.462742
404 5629 0.810835
3447 6905 0.392715
19037 3198 0.243636
14329 18040 0.493356
19515 10416 0.589996
17153 11332 0.578
13703 7 0.741986
5402 4048 0.205154
11759 15614 0.570886
9845 6394 0.89637
3437 5967 0.269991
13375 9217 0.265656
698 9829 0.402778
12262 12487 0.299012
5706 7738 0.109734
4755 8205 0.634555
10372 695 0.805786
15754 10810 0.610706
677 13294 0.831585
18538 12583 0.411106
7051 15199 0.112261
6590 9653 0.951721
667 10142 0.468792
2218 17711 0.115842
8178 3998 0.350234
2006 8071 0.156316
1567 4040 0.0192157
8511 16635 0.0128981
11723 4250 0.906943
71 18238 0.746715
13569 14907 0.728233
3092 934 0.528906
3051 9520 0.243978
1204 13993 0.170999
6097 4813 0.62434
14989 1134 0.315343
15282 5678 0.395956
393 3050 0.433029
11050 7079 0.980991
4826 9868 0.884917
15211 220 0.982578
958 4134 0.0698776
8197 7196 0.726302
160 6660 0.146164
9355 18182 0.273762
17589 2621 0.300707
16409 14947 0.319581
12304 18248 0.606039
14625 13473 0.607867
11417 1045 0.862738
11720 19407 0.494857
2174 10667 0.497906
8679 19440 0.206164
10285 16057 0.425045
18036 18230 0.330634
3109 16775 0.655032
12608 1376 0.833665
1406 10280 0.485972
3309 8060 0.767577
5064 5105 0.224448
3410 1527 0.40123
4657 18071 0.602172
1572 9517 0.203356
2828 11766 0.261325
3321 15531 0.0121915
3662 18645 0.0569851
6178 5031 0.926761
16803 9593 0.946986
16807 1974 0.598373
19228 6252 0.92593
19241 19608 0.969237
6720 5814 0.86477
7900 12126 0.0751162
16585 11422 0.192225
549 9556 0.178706
12939 3686 0.0258411
11687 1988 0.0746426
7700 5587 0.346427
12363 6704 0.351577
1190 8722 0.458321
3703 12556 0.0553351
9123 11149 0.807812
8041 3173 0.292962
12261 19405 0.256888
9720 19190 0.905424
1970 14941 0.965452
14730 11816 0.374437
19536 10523 0.169491
17098 5552 0.907205
9978 9756 0.787755
12485 19153 0.510628
18405 3533 0.510454
1668 12954 0.511113
14319 12181 0.483596
8092 15589 0.243713
19770 2630 0.951398
5045 5055 0.903912
8910 6176 0.916904
1541 2947 0.680821
6618 18261 0.0134003
1264 4490 0.124916
752 2725 0.0469885
2038 10599 0.326586
8653 5060 0.0504855
3269 2975 0.230079
10888 112 0.602364
6282 829 0.744043
13702 6591 0.389028
16514 10123 0.301506
8621 8705 0.610339
4247 14945 0.173063
8845 1642 0.615574
12915 11201 0.129263
5938 2496 0.820954
16141 7565 0.409525
10989 4984 0.787913
4748 11664 0.942361
19346 8451 0.619316
96 864 0.31351
6686 2420 0.19278
2742 19160 0.917553
12833 3195 0.549174
7833 3500 0.87099
2494 10943 0.873525
7719 3536 0.192316
16023 2271 0.313396
1238 11376 0.812518
7827 18656 0.683471
9833 14267 0.148946
7219 5565 0.374119
7815 12733 0.120424
1535 7271 0.475818
7450 12409 0.394352
3738 1484 0.779252
16336 4711 0.143074
15332 4544 0.736627
11302 2261 0.289737
3835 9281 0.852443
7058 8564 0.0419105
14283 2724 0.789328
4581 13588 0.806338
14883 12494 0.170135
3314 10486 0.629775
18630 108 0.76814
13645 17865 0.635186
1580 304 0.44134
8242 18387 0.207384
2495 1435 0.167591
10482 14183 0.523532
5663 1054 0.71186
3146 1197 0.351431
11200 10930 0.626446
2169 8926 0.666765
6333 7681 0.44479
1387 21 0.437945
4625 9355 0.104972
5753 2276 0.194176
12257 7585 0.330206
4371 11671 0.861182
15917 4222 0.680055
1804 17584 0.987671
8180 1264 0.485534
10650 10065 0.343423
15797 5582 0.382294
261 12661 0.666177
5664 9176 0.872497
12024 8254 0.877319
9970 15353 0.4386
16834 901 0.504854
11212 17942 0.431838
19226 24 0.652011
7018 5045 0.0112501
5668 8756 0.981016
4417 15406 0.509987
2774 9350 0.191504
3105 11242 0.865884
12118 6026 0.291732
34 13164 0.641688
2720 4844 0.721166
13659 5807 0.851238
4566 6025 0.160467
14361 5324 0.707547
11651 9334 0.617376
16689 3259 0.8799
5054 18415 0.6266
8768 681 0.586362
11827 12408 0.96162
2965 7254 0.820332
11333 5772 0.765285
8393 219 0.783559
8102 1929 0.393873
11794 9479 0.846472
5563 16265 0.469136
19035 9286 0.664754
986 959 0.251837
386 6634 0.743281
1843 18856 0.513547
12113 1312 0.156655
4272 10756 0.0379549
7452 10970 0.386228
17098 6783 0.39965
9707 6661 0.42269
16777 8418 0.838223
18539 10211 0.721717
19711 593 0.4386
11552 5954 0.369509
1831 3585 0.970795
18005 2811 0.468014
3426 9229 0.397318
7314 19123 0.934851
16388 741 0.831113
10530 1141 0.877502
4382 4186 0.526604
9211 4095 0.675115
15845 3944 0.417968
12077 2754 0.281538
1311 15581 0.141828
5306 6438 0.847627
10693 2624 0.536453
6176 5917 0.183346
4246 3132 0.802476
16531 1166 0.587187
7787 4420 0.511537
5314 16617 0.204073
12386 11458 0.656821
11325 8228 0.369741
19827 5194 0.75676
9104 447 0.0511536
12434 952 0.211127
11160 2200 0.365753
10554 11836 0.929052
9947 9020 0.29174
14477 15298 0.817861
15719 19371 0.506349
12035 12294 0.362787
2349 3856 0.00951633
3862 3295 0.0938881
6630 8075 0.0172545
12377 1670 0.474039
1037 7453 0.928126
9237 11406 0.476417
19152 10970 0.22838
6999 11943 0.794684
8025 3262 0.93767
6716 5445 0.105468
8543 12475 0.982221
7634 556 0.546824
5953 3088 0.926174
1848 1858 0.332482
12062 201 0.699394
3590 10500 0.695934
14393 10252 0.867502
3695 8866 0.501892
13018 10434 0.00283546
4876 9490 0.209462
8950 11314 0.0662112
7246 17946 0.46184
19272 9367 0.619098
1365 14590 0.41104
9287 8585 0.306321
12149 6110 0.316479
6420 1330 0.52822
10290 1400 0.440477
2825 7883 0.54375
907 18768 0.729967
12552 5873 0.434086
17510 7186 0.697365
19758 6425 0.268527
8427 14312 0.492382
17448 11063 0.283263
16610 15986 0.750325
14684 654 0.860572
5982 13143 0.82688
10805 12577 0.070742
7482 16840 0.495622
11531 16937 0.789026
8672 10953 0.164882
242 9463 0.884922
8144 15409 0.422869
10558 10219 0.245568
8654 1887 0.429604
7039 8374 0.167253
6171 6606 0.761834
8093 11192 0.329565
15869 6676 0.474911
8117 5738 0.939477
6450 10785 0.963199
1227 14686 0.315676
19907 15388 0.756346
17236 17594 0.849592
5515 8302 0.974006
14996 3645 0.0257397
5783 2783 0.604841
660 6745 0.217107
5918 16320 0.796548
858 5199 0.199201
11560 14809 0.718141
18438 2285 0.412761
4484 10881 0.169767
7741 227 0.86318
16505 9323 0.553001
7788 9997 0.19775
14378 5022 0.11188
2546 10567 0.138655
2180 12087 0.94202
10069 17146 0.168285
5108 7040 0.205281
6235 9134 0.685852
4570 1082 0.193307
4246 9055 0.176503
5360 9097 0.0199358
5471 9303 0.598233
14824 8012 0.632579
7320 2057 0.0239572
11395 3921 0.490168
13385 5203 0.117551
2649 11784 0.0566609
3240 7833 0.57381
12633 1722 0.0244914
15136 6937 0.790967
2631 16431 0.104903
16917 4122 0.235795
13754 12834 0.345939
65 13274 0.746129
14262 2680 0.441282
4997 12151 0.743824
3028 6883 0.943604
6123 4472 0.732711
3730 14674 0.576701
15395 2092 0.108195
4645 16691 0.465832
12331 486 0.510356
15404 10449 0.124456
14722 4469 0.699852
8594 7429 0.17973
16833 8623 0.548883
6705 8429 0.570949
6119 8931 0.608029
11891 3750 0.820926
14456 14127 0.381083
3846 2389 0.539022
1577 6921 0.661426
7981 14154 0.8971
19634 8486 0.717266
17417 10334 0.0484023
16564 2734 0.923597
15629 2725 0.8562
15769 136 0.486359
19255 8901 0.853278
14955 2671 0.877113
8940 539 0.201525
4772 17593 0.93351
11659 8627 0.912842
797 19077 0.180296
11384 5903 0.700194
18105 14386 0.098658
19552 18054 0.917
7139 12771 0.802476
6308 8014 0.668607
9262 1465 0.658207
4579 3990 0.809163
5894 6221 0.513872
10959 9985 0.887735
15431 8161 0.014664
2771 2352 0.929073
15292 12255 0.993334
7699 5366 0.0609581
7525 1206 0.461949
6574 5056 0.953767
8243 1556 0.401173
15695 301 0.839702
7230 5131 0.414635
2639 8574 0.672508
310 12708 0.492802
3178 4637 0.0417457
5578 4865 0.0288136
4733 12147 0.0378071
14864 79 0.452567
13928 2663 0.484823
10384 13267 0.52991
4058 5643 0.699057
9673 17837 0.245074
6396 10918 0.919742
3840 12264 0.819958
6847 3599 0.793217
717 2853 0.163351
14626 19671 0.991188
11589 3659 0.230625
461 16740 0.431822
8572 9824 0.465626
2207 7158 0.457828
19076 11727 0.0915806
6387 10709 0.621593
763 18767 0.363901
5866 12462 0.264916
3036 10274 0.160066
17832 1540 0.597765
2538 5035 0.88982
16502 6816 0.862626
11353 5209 0.486227
18737 5337 0.820529
15092 12536 0.427905
9609 14349 0.0574003
7672 6422 0.496066
11238 12216 0.446433
14464 2423 0.547566
587 3486 0.803761
8250 14659 0.533416
2642 16361 0.751649
8754 4445 0.938607
7623 7357 0.820417
2838 12584 0.629507
14694 14237 0.376228
11252 14381 0.845356
3704 6972 0.13537
13189 17114 0.112625
3144 8198 0.387318
11325 340 0.0745122
3653 18014 0.547635
3165 17062 0.882364
2555 1732 0.119011
4308 2323 0.810039
7997 3230 0.309352
6555 12812 0.0820415
5774 18824 0.81733
849 6822 0.461795
7043 15345 0.836328
4420 13064 0.859955
18975 12490 0.217378
12026 5960 0.760809
6479 9613 0.229305
14754 7391 0.450916
1419 6616 0.77271
13178 3714 0.850543
7404 10562 0.0455306
16758 1583 0.505591
9965 8611 0.553076
14394 9683 0.344389
8263 7911 0.634588
5442 7704 0.472827
16898 9728 0.654183
17419 10265 0.0243931
7412 8953 0.261957
9374 11833 0.0789716
7058 9398 0.448939
6447 10211 0.852869
1955 11907 0.221437
16694 12136 0.811373
5205 75 0.744464
6221 4982 0.67415
18299 7673 0.480392
15622 15626 0.10778
14644 4553 0.0957938
3625 17100 0.443472
2638 3186 0.0327533
5506 12590 0.350633
15920 12504 0.39043
17188 450 0.241213
10 3352 0.380569
15240 19587 0.959039
10509 3544 0.590476
16245 779 0.704205
19440 669 0.439906
7241 2787 0.761009
7037 11042 0.965658
4225 7225 0.371069
18959 9012 0.106225
7683 3757 0.371723
12864 5242 0.249205
2674 6587 0.309072
19388 7838 0.390907
5567 7212 0.493099
7799 13317 0.678967
15810 6989 0.524403
15365 11437 0.101335
1658 17335 0.861122
2682 18379 0.525674
525 8725 0.96919
7745 12994 0.168286
18911 5219 0.404432
10319 11645 0.853278
7167 2674 0.15617
11731 8215 0.696835
8644 7725 0.189197
13059 6871 0.350609
3442 12758 0.245631
19869 3709 0.549284
3378 11947 0.937065
187 4333 0.301327
4789 14720 0.836608
10251 2083 0.363709
14210 10556 0.101714
16154 15248 0.516096
2383 1349 0.668872
6854 16012 0.860859
10258 698 0.742015
5536 18566 0.804678
12497 3354 0.437196
8878 17277 0.940298
914 3820 0.181686
2888 4794 0.324696
2612 6958 0.250456
12094 4569 0.623389
7785 9072 0.826631
9170 7498 0.331985
6163 2932 0.75396
6329 7178 0.814686
629 8038 0.865861
3001 4611 0.409527
6696 13619 0.284171
3158 9744 0.455164
2963 7890 0.598489
10758 8757 0.324696
10708 7439 0.891967
17267 10317 0.527433
6970 5598 0.00582467
9470 11179 0.666671
664 7625 0.0322657
6037 1403 0.7031
10487 4989 0.77271
11620 11868 0.293679
19311 9306 0.291732
1103 17808 0.0325955
1281 11819 0.986182
10137 2015 0.717248
17849 7545 0.924112
3266 12179 0.669226
4468 169 0.726736
2950 11859 0.00486222
16389 4332 0.293592
3829 3221 0.00698779
13948 11463 0.363424
2531 3311 0.662496
8646 14356 0.345039
1270 9566 0.815017
7233 4738 0.180302
4169 4081 0.999424
9546 10147 0.808871
8381 8682 0.919376
12634 4464 0.576142
4111 15269 0.253618
5612 3959 0.0483531
11093 11047 0.189197
15694 18317 0.718884
9622 7446 0.303295
7144 1146 0.616675
1283 9418 0.838223
14442 1419 0.135132
5083 11205 0.354324
9040 19073 0.558311
6106 5632 0.830387
345 7418 0.703274
3676 18672 0.318996
7362 5057 0.861068
4748 14087 0.676625
7783 3975 0.914643
3933 12118 0.565511
15807 19830 0.149204
4473 7294 0.613149
9526 5533 0.732206
3274 6865 0.999863
10647 8677 0.847107
578 14997 0.5497
1846 1562 0.912254
10636 3167 0.132314
8878 2130 0.922508
19539 2298 0.639514
1821 5504 0.280041
7387 30 0.696637
14995 5756 0.422857
16271 16827 0.218849
2165 4743 0.178305
11847 2627 0.525274
5905 3190 0.495622
9654 7741 0.414157
16081 6553 0.492277
10407 1037 0.848153
6730 2543 0.737436
8097 354 0.328878
12887 6446 0.831306
8363 10413 0.810858
7468 14759 0.958089
11018 10232 0.521575
4490 4199 0.943647
14085 8273 0.0662207
4017 4030 0.74451
4475 10891 0.492923
11590 230 0.682676
11182 2494 0.794124
15137 4951 0.463614
13962 11944 0.0205341
18356 7514 0.413298
10877 7936 0.587652
4540 8310 0.863447
6519 1339 0.990266
2891 6806 0.144445
2699 13394 0.427742
8120 11153 0.440822
14827 11016 0.747771
17545 2813 0.822133
4374 6796 0.711952
5444 7659 0.104735
15544 811 0.426092
12161 11377 0.39552
19360 2365 0.337064
2170 7337 0.0413211
5228 12612 0.738874
2512 14359 0.392551
71 18725 0.162541
6381 2593 0.995979
1388 2375 0.266416
4118 4514 0.939796
12550 2824 0.905286
10243 2274 0.465194
16550 2121 0.653507
8259 6809 0.23452
6826 7031 0.878022
3719 15455 0.278464
8274 11389 0.901991
18197 14081 0.326748
2485 16077 0.160901
11090 8699 0.883877
5301 4259 0.426987
6343 16085 0.735181
5458 11377 0.534413
2659 10859 0.377069
1561 17618 0.879474
11700 4991 0.590449
4640 5161 0.524472
7216 12126 0.840004
17676 9677 0.563697
18974 4138 0.00966757
3069 2005 0.897339
4427 5569 0.141386
9352 9925 0.000357518
6818 1181 0.945671
3049 6005 0.053139
6883 73 0.554739
11790 8809 0.845863
12268 13972 0.395298
15167 3059 0.180456
4485 19710 0.474402
9715 1387 0.29831
11423 2253 0.176269
7494 861 0.94015
12582 2038 0.927638
14282 13428 0.326074
5179 7634 0.706156
9968 790 0.842804
8800 1532 0.822109
2631 15647 0.60645
1899 11858 0.66023
7982 5813 0.508827
2676 2407 0.99684
16500 7239 0.59108
9045 12528 0.891967
9024 18 0.0124197
18647 13812 0.825971
16060 2833 0.196699
11190 3889 0.501963
10760 2940 0.483744
9361 9881 0.236617
12329 9143 0.705344
2344 6018 0.8363
17689 11425 0.739905
12335 7636 0.664682
2598 15182 0.162528
5985 17774 0.900694
7133 13226 0.624142
19894 6604 0.147853
253 12095 0.0622831
11698 3081 0.63976
11529 1399 0.0616437
17819 149 0.368741
4617 6109 0.700755
8803 1712 0.0901733
210 2356 0.978484
999 14733 0.520807
9758 11491 0.739849
3816 2002 0.993216
8153 9872 0.595842
14370 8681 0.118016
3271 2347 0.534387
10328 16736 0.59042
5191 4915 0.220993
8163 5521 0.978699
1390 2165 0.103751
16566 375 0.220091
10174 18049 0.54341
9047 7504 0.871619
5402 4585 0.571758
6182 3397 0.300752
3391 13765 0.781484
7071 2725 0.343937
11159 3854 0.936926
8789 11577 0.713315
1052 13845 0.607459
5849 6056 0.63265
11053 8112 0.215353
14305 9281 0.166578
14694 17876 0.437409
4021 3684 0.708205
9483 8437 0.098262
7025 1256 0.660643
3859 13017 0.850713
10272 17083 0.484698
3617 3836 0.990305
8212 2878 0.880395
12572 19721 0.953947
11830 11651 0.0998727
9140 6446 0.203063
14038 12470 0.0499119
4576 7410 0.744873
261 3212 0.885012
9222 2726 0.739543
10756 10833 0.647005
13338 10705 0.141741
7557 14672 0.398544
4047 6280 0.86247
5198 1803 0.457682
7319 1540 0.696637
6482 10860 0.757831
6628 10805 0.93048
7898 10267 0.243727
783 4396 0.28524
2306 2946 0.137378
13059 750 0.984398
14076 7719 0.590449
2829 3354 0.965668
12342 2196 0.677422
6023 207 0.465194
11504 910 0.466811
11910 4633 0.802823
7600 8074 0.773034
2591 6237 0.791366
10641 9601 0.368998
11867 16906 0.426671
11322 11409 0.754786
19014 13404 0.356532
3879 19750 0.0510312
8810 1265 0.121221
10145 1911 0.413157
6000 1489 0.825805
4890 9312 0.965577
11688 2592 0.010089
15587 6734 0.470219
364 1550 0.172545
10015 9765 0.838323
11230 4004 0.706197
2617 12011 0.820058
561 7084 0.384362
16401 11187 0.548228
3830 15393 0.89653
11110 18197 0.897487
18950 19130 0.352799
5534 11103 0.501369
10049 4922 0.00736499
11996 6148 0.793664
9560 5917 0.145653
9528 7858 0.974661
15754 15345 0.934323
110 5383 0.521715
8706 10062 0.690972
2309 11593 0.190936
5776 9599 0.552489
6385 5453 0.836394
9733 16407 0.510661
6506 3095 0.426832
11799 5927 0.990305
5729 2040 0.797196
7570 9889 0.934361
5570 120 0.855884
17074 10673 0.287009
3134 1957 0.930574
11252 4756 0.993241
8074 3412 0.537689
12266 12561 0.506331
16419 9268 0.0921529
423 12191 0.897621
2392 2523 0.666279
9690 3016 0.581985
5361 652 0.785999
4199 3412 0.648996
5188 6667 0.259174
10007 14958 0.28393
10258 4809 0.0379549
4106 12416 0.697987
2409 14336 0.383096
8954 5468 0.857417
4802 12211 0.09732
10960 17613 0.788507
10300 64 0.565018
6473 14244 0.899115
11383 7053 0.0520475
16257 8228 0.0588804
12116 19557 0.382436
3260 4177 0.691764
19144 2605 0.940779
9176 8195 0.800544
650 16681 0.689292
18674 7124 0.558986
10701 7346 0.827303
3593 12119 0.61155
10496 3091 0.585205
19742 11626 0.587512
9200 8687 0.972788
5403 11853 0.197775
10493 4438 0.364735
7014 12887 0.830387
355 3316 0.369999
10663 14384 0.373245
2798 14646 0.0506773
11312 13800 0.00479976
5216 17658 0.512302
2761 15215 0.483072
8345 471 0.34742
18516 1795 0.443583
17629 3670 0.924087
5942 9228 0.692969
1706 9078 0.718435
6246 5002 0.55942
17362 8079 0.917079
19478 17027 0.101902
15179 7246 0.234528
355 4017 0.674462
9732 4665 0.984297
3852 11688 0.46839
4983 11033 0.884825
6791 12342 0.124454
9031 6291 0.588359
9837 6937 0.55957
527 3669 0.884971
2247 2679 0.472491
6973 12567 0.950094
1792 15043 0.370885
14866 7760 0.0956611
15806 11932 0.416484
5369 5157 0.0510639
11779 3966 0.83497
8975 3903 0.740936
383 5372 0.269223
13139 10892 0.736891
9097 10342 0.953073
10848 9189 0.316551
12480 3350 0.7217
7797 4268 0.143842
6036 1989 0.662548
8413 10425 0.538217
7624 13997 0.882716
10835 17131 0.190426
213 14645 0.976006
17296 15939 0.757959
2016 10579 0.401027
12019 2542 0.0450919
4105 688 0.308874
12067 9304 0.606331
12734 14713 0.595515
14165 13841 0.430176
6990 5987 0.143182
8290 1115 0.834086
3406 3858 0.0454392
4034 10833 0.610162
4022 2470 0.63539
2035 8970 0.08277
4582 3921 0.0876351
3770 6132 0.337516
12705 17615 0.998192
11921 9784 0.940394
6304 6778 0.65162
10319 3585 0.971181
7848 8441 0.939437
8609 12167 0.761013
1427 7440 0.792402
7222 11375 0.719248
3640 11080 0.186188
2115 5622 0.721066
10302 9619 0.990699
8957 8121 0.506149
11959 35 0.810524
12359 5415 0.693014
14765 10165 0.109351
8919 507 0.359377
13971 5672 0.183234
14074 6033 0.932456
1043 10006 0.106819
808 14827 0.577421
3667 6127 0.79138
8870 18432 0.486633
1519 5411 0.624059
7846 6782 0.141806
16019 16296 0.922076
11882 11119 0.147034
4893 17706 0.12764
13931 6387 0.0710667
3284 11206 0.800133
562 10218 0.873163
729 503 0.142741
5799 7703 0.523975
4009 19786 0.558227
8649 1204 0.773805
4136 5187 0.832922
7806 12357 0.115695
1454 4252 0.735375
8899 15378 0.246331
7696 10179 0.194512
3295 3396 0.489327
1054 8191 0.561173
17082 3962 0.835424
13979 3882 0.0551409
2472 4545 0.830819
7171 4265 0.528169
4872 5276 0.437196
9280 19260 0.663681
7902 5842 0.487276
5356 10694 0.350497
13784 6387 0.598624
5998 9322 0.109558
3374 12663 0.257731
1852 6621 0.375469
3406 6193 0.701504
12190 12430 0.370055
7225 7029 0.498161
12275 8415 0.314402
2252 12088 0.769777
4872 1471 0.0533303
1214 383 0.00691363
7227 7189 0.495378
2776 7358 0.390052
9405 4896 0.902499
9478 17255 0.418205
6494 12469 0.280942
7974 3703 0.744081
7793 11273 0.024261
10205 5906 0.191764
8663 14298 0.627857
893 5801 0.955888
10819 9316 0.0119534
5482 11665 0.10633
13989 5335 0.815241
12861 852 0.0936804
5847 2571 0.591183
16426 5864 0.0228396
756 1898 0.598963
6968 11165 0.194828
11105 6078 0.130435
17316 9428 0.0150035
358 3751 0.340233
3526 17730 0.389325
11420 2092 0.139892
4377 2032 0.995727
1279 11940 0.584242
13414 9092 0.863195
12730 17714 0.833665
3667 10745 0.242507
16109 13352 0.130313
6834 12641 0.972509
6491 14425 0.865082
436 9899 0.194149
7631 6175 0.282619
19791 3147 0.584739
7259 12049 0.751571
3799 3936 0.2585
2993 10753 0.128977
15683 7342 0.22023
12226 12150 0.173239
11292 1228 0.586849
19974 1103 0.206412
8842 10993 0.626684
14772 9422 0.782537
3880 15485 0.748479
4265 14079 0.159088
12885 749 0.634796
9731 11217 0.722355
9205 9528 0.143453
9986 7583 0.183823
8348 16322 0.856648
1183 10355 0.0123064
13736 4050 0.50504
12444 5628 0.23538
6908 10628 0.912019
10609 10593 0.97559
12613 9587 0.104291
14656 4428 0.351125
5952 6420 0.803407
8357 10305 0.928153
13288 12072 0.344967
3765 11823 0.742934
9531 9204 0.836815
733 2778 0.631176
12482 12774 0.505358
3361 7281 0.477947
15867 2453 0.135634
11918 4988 0.601616
6385 10057 0.366252
17591 927 0.600434
6314 13023 0.854255
18131 14099 0.70186
16776 4912 0.304995
3176 10107 0.52696
5282 5095 0.058507
7495 5764 0.267276
10909 15929 0.0684107
5471 12431 0.01433
10877 1211 0.980316
9894 8507 0.8071
18281 11901 0.732395
3360 3934 0.407173
17499 17688 0.134451
15455 12513 0.633792
9095 3308 0.442101
10028 3536 0.552969
9032 19539 0.416001
9466 17751 0.0991495
19776 15824 0.718754
14533 778 0.587114
7006 6279 0.410617
9031 4815 0.808571
5843 7135 0.132394
1786 6054 0.939218
3958 136 0.740677
15903 2221 0.586716
14025 4860 0.491448
560 5681 0.0408089
4304 4197 0.4057
9946 755 0.0969271
16438 8256 0.621719
4504 7174 0.353594
1253 1902 0.642366
1653 9904 0.398804
7035 18388 0.803815
13053 2126 0.122099
19366 1926 0.537026
6553 6299 0.782943
17472 16622 0.139358
19175 8206 0.253382
7745 1117 0.382294
1198 18619 0.625471
1895 12057 0.176541
11839 7203 0.595518
13039 18832 0.691499
8901 8992 0.557121
9888 1213 0.0151873
5788 5776 0.416499
8179 12461 0.488246
18137 1813 0.154049
7654 15 0.764092
2014 9318 0.732513
16357 13102 0.729188
9579 10160 0.83491
12324 8027 0.941727
9333 2091 0.930638
14497 2519 0.932424
11858 831 0.851662
12377 12885 0.671359
2397 6932 0.615279
12233 15858 0.416624
10100 12608 0.0674723
782 12674 0.549459
505 7931 0.300794
2547 7459 0.838074
18640 19965 0.878912
14205 4052 0.471947
15486 6467 0.0358364
10116 1534 0.396387
9243 729 0.243236
2523 899 0.635765
11688 11574 0.215767
15230 6103 0.723996
13509 12060 0.123532
9593 2933 0.0721077
10772 4071 0.205031
7520 8865 0.946986
12458 10131 0.707352
5 8875 0.277134
1337 6454 0.797842
13542 5106 0.125126
8792 4959 0.909626
5776 2952 0.521744
12357 6405 0.628795
15031 12182 0.789195
5712 6491 0.820177
1749 2616 0.220735
16031 11906 0.780131
18533 985 0.537258
19536 7868 0.110551
3412 2480 0.295105
5651 19139 0.976338
1196 5852 0.428214
19392 5295 0.463923
1799 6207 0.372081
369 16062 0.0950683
6831 4095 0.0531025
10828 8057 0.968324
3984 4930 0.546298
6408 4506 0.665145
17672 12578 0.374641
18858 4869 0.302435
15562 5313 0.0479602
10395 583 0.967261
4051 7047 0.95928
17818 12382 0.335348
8274 2957 0.08912
8159 3452 0.843931
7839 19157 0.01666
17977 5885 0.354275
12271 1055 0.24154
7868 16745 0.467357
16299 11824 0.389618
2792 12047 0.627029
9106 2077 0.364087
17477 10529 0.123195
14543 14932 0.341602
17917 11624 0.439606
7227 12029 0.233446
10955 8277 0.115054
15521 19998 0.928754
8784 10012 0.552057
1778 12551 0.523243
14527 5921 0.765682
4724 3324 0.29601
3650 1794 0.614312
7757 2819 0.44055
9821 112 0.47062
3266 8928 0.116721
8361 17845 0.0575681
2741 5839 0.286962
2145 3467 0.0994919
9279 13183 0.478592
1922 7635 0.149185
2379 13721 0.242233
17231 10866 0.85891
14647 10428 0.887947
4599 5053 0.178638
10387 19518 0.15814
6675 8361 0.320326
17591 15769 0.443753
5850 997 0.813977
11379 9323 0.297285
10441 13460 0.257234
1779 19069 0.100652
16031 568 0.923597
1266 15630 0.927592
8847 1700 0.577444
3523 4873 0.862626
15572 8118 0.940413
3052 3662 0.0666616
14353 16680 0.53672
14483 541 0.326756
7353 18811 0.796978
7792 4549 0.744534
4180 2855 0.910791
17715 7007 0.847484
2943 18779 0.718715
4573 12592 0.374126
1306 5391 0.700848
9529 19317 0.842987
7611 5079 0.538864
12451 6531 0.993495
954 8315 0.640296
9369 11504 0.691764
8813 6396 0.404618
14193 19911 0.00342374
13174 5702 0.232576
18293 12769 0.443703
15986 3548 0.895245
19722 703 0.193656
17010 17132 0.635598
2659 10350 0.879181
6660 9671 0.958983
15659 2509 0.0796076
9459 11051 0.178693
12601 9417 0.680802
7843 1634 0.199749
594 14400 0.85435
1435 9044 0.994192
4932 8758 0.764092
12664 14738 0.620949
2285 9783 0.856497
5323 15586 0.0489723
11901 4100 0.929673
8811 531 0.953849
9885 8247 0.443016
9436 6429 0.54687
13487 12119 0.100588
1047 6019 0.158428
15578 8484 0.248661
19917 14300 0.553853
14147 1747 0.783317
2982 6758 0.977113
12550 10390 0.649078
11131 6813 0.781418
7871 1806 0.136788
12034 7173 0.0884466
9263 4649 0.370637
9129 9421 0.970229
286 15082 0.527383
4843 4718 0.826212
12614 4291 0.975593
9598 8358 0.271288
11774 11139 0.701226
14824 17153 0.791381
4783 15376 0.362843
15501 2460 0.689024
12431 560 0.54877
4757 6576 0.898253
9583 13024 0.834882
2393 19389 0.710355
4583 6156 0.123814
3396 11132 0.139964
9832 6672 0.726984
10948 8577 0.639698
10766 9116 0.377158
9939 7998 0.205135
60 12039 0.357554
12448 2986 0.477363
13907 7291 0.479734
16748 10562 0.220055
9664 11672 0.137378
3675 9125 0.350502
15795 5300 0.788327
19716 12559 0.25873
15456 1093 0.500687
8759 18519 0.963708
10791 8227 0.123177
3119 3963 0.0503648
803 6961 0.572376
8004 11349 0.314702
7228 2361 0.800468
3277 3567 0.789483
3565 812 0.763394
19949 9057 0.0742252
6648 11776 0.856276
4643 6122 0.316683
6557 4869 0.336782
18358 6294 0.314156
6333 6810 0.380704
11141 18852 0.388042
18524 261 0.822148
19339 10025 0.212606
11113 11170 0.335348
17258 19447 0.112788
17949 5588 0.151284
8471 12142 0.90896
12707 13946 0.295856
5963 7458 0.349952
15920 12713 0.352734
3850 7265 0.331377
13451 10080 0.740866
10042 10773 0.223418
19512 4075 0.447805
8862 18939 0.55808
10068 8427 0.28962
13017 8738 0.265285
17392 10608 0.752717
436 3076 0.474761
1803 17239 0.35998
11268 4281 0.555062
2883 5755 0.472644
4552 4994 0.223371
17551 9132 0.549174
979 4311 0.576965
1303 10014 0.714486
5442 3932 0.06083
12106 18344 0.15659
17208 7356 0.671614
7291 9412 0.525732
13266 7683 0.319812
7253 12589 0.000757639
6743 18085 0.358886
11509 7351 0.423173
16527 5390 0.516256
3245 1208 0.56278
10252 1203 0.763547
3339 3637 0.232483
2771 12909 0.0581425
11663 518 0.391781
9479 4671 0.262081
576 8046 0.133795
4155 11698 0.0769015
8525 16103 0.379619
17667 13056 0.830916
18639 9404 0.919207
14559 12964 0.0799419
11235 12692 0.881553
4309 8709 0.696637
9021 7788 0.420769
18159 1131 0.193002
11862 4872 0.985486
3466 4573 0.422282
9795 3084 0.179559
8718 8722 0.760534
700 7106 0.831113
18207 1128 0.145008
4734 2446 0.497454
631 19105 0.673795
11472 3991 0.601334
12185 10596 0.335027
1278 13845 0.474321
3376 12330 0.736993
1153 15870 0.417155
11525 15406 0.744188
6122 8293 0.913545
9104 15702 0.130709
5861 17216 0.990911
7063 1609 0.916834
19242 16327 0.463127
13761 9428 0.531969
7304 18263 0.393832
14201 17647 0.440483
16130 13196 0.0133483
12585 5943 0.145376
15122 2180 0.106444
11019 6203 0.466112
10011 11483 0.594694
5694 13032 0.0329741
7990 10164 0.189927
13267 8660 0.0658099
7314 11990 0.200857
1136 3440 0.0772978
16688 6281 0.158287
18514 4753 0.66774
12117 6744 0.485259
2162 532 0.0162233
9266 18426 0.0604567
12523 12670 0.507428
700 3787 0.612768
6343 19684 0.874687
9649 35 0.493738
8174 3974 0.2094
15825 1880 0.887735
6119 1294 0.898761
4652 2261 0.574821
1980 15591 0.427757
1473 15368 0.967684
10884 9988 0.602759
3755 4902 0.431595
2143 10916 0.997424
2625 14205 0.482683
3046 14741 0.688213
18613 794 0.354624
31 10000 0.615335
15277 9187 0.439053
4837 5466 0.13592
15889 6030 0.574154
10132 5752 0.950689
8140 9139 0.706683
5586 4219 0.27605
12265 242 0.090264
2733 5598 0.0393385
11933 16651 0.17531
12074 9465 0.492392
952 2922 0.222017
6237 3538 0.379735
18779 2404 0.848276
3190 5695 0.656167
5131 6078 0.543295
17389 5428 0.89824
11745 14422 0.993914
11007 10948 0.00154351
12012 4936 0.151446
4021 14728 0.167844
11047 275 0.475978
7683 4277 0.337841
482 16553 0.351126
12762 4334 0.850544
5070 14991 0.973506
6294 3801 0.555322
1849 140 0.159196
5599 2855 0.715831
14512 5430 0.704146
5367 10650 0.830861
1724 19469 0.344963
9984 8450 0.136444
8661 15901 0.267276
5579 13481 0.72003
14061 3364 0.740996
11831 2107 0.106714
18604 11483 0.592538
18448 1670 0.12928
15293 1292 0.291004
14782 7846 0.960321
19044 19111 0.673995
5208 12167 0.422917
2528 6112 0.060512
10748 4024 0.710322
1292 16130 0.491313
2650 9409 0.0313257
5876 7878 0.108343
60 9719 0.0925879
7568 1004 0.635765
10605 11234 0.168375
828 6338 0.614148
11574 3939 0.193831
13935 16456 0.0485805
11827 2628 0.110551
9391 6961 0.0616356
10926 3196 0.0320561
8112 18697 0.928321
4290 2963 0.394432
7733 14338 0.242451
7419 739 0.060108
5684 17168 0.525674
17156 11726 0.249205
14465 8420 0.724871
902 4504 0.647466
9577 856 0.252209
10627 4703 0.611517
13397 8312 0.509004
10557 2344 0.713563
12875 3880 0.907205
2941 7285 0.180178
16598 14395 0.977365
12757 11348 0.917013
8159 11818 0.199982
8366 9224 0.288537
12581 1368 0.231873
16061 343 0.0383341
11372 6345 0.905753
6350 7472 0.847484
5309 12019 0.777083
7292 6884 0.00200898
3224 18186 0.787886
3969 5558 0.103348
8064 1423 0.472134
974 17361 0.516361
5942 419 0.798481
168 3064 0.663634
12701 12129 0.650769
1004 3470 0.235003
2736 5927 0.285737
12008 7562 0.202931
4052 19341 0.871941
11364 2593 0.43542
106 16878 0.477805
8006 11330 0.850821
2608 16686 0.116879
4475 1148 0.0782108
3014 4761 0.336733
4101 1147 0.8024
6965 12733 0.478091
8141 16396 0.416101
5791 15554 0.200752
8197 9351 0.228296
2079 10284 0.990065
1448 440 0.959578
5685 426 0.654107
15109 18022 0.0666616
19195 3126 0.218656
12692 3388 0.559327
1478 8603 0.911817
2403 10139 0.462685
19051 15461 0.516331
798 1378 0.71973
19400 17251 0.161825
12758 3292 0.215903
4990 3083 0.314711
19437 4239 0.736624
272 9589 0.485055
3638 8015 0.682956
2262 10276 0.628435
8009 7965 0.74343
8500 9001 0.890032
7965 1801 0.621702
3344 12224 0.966802
6336 4767 0.748421
2377 8625 0.737888
9235 3453 0.466597
11639 11622 0.229739
11443 11336 0.560781
9959 7746 0.48105
11157 15345 0.0553545
11318 8671 0.0182972
15033 13257 0.397591
6923 5428 0.82378
11327 5357 0.328784
8710 2944 0.322189
10016 11443 0.342944
6999 8141 0.142552
17526 2605 0.414489
5260 4762 0.175574
19408 11787 0.293218
16329 12280 0.25087
801 5615 0.0326945
11331 11811 0.469168
3977 7569 0.159498
17709 6127 0.150242
14930 11062 0.171784
7036 1865 0.48572
17302 4208 0.5316
10648 1845 0.301429
18384 6107 0.942834
17689 8141 0.206106
5297 6412 0.820546
4818 10267 0.278578
11862 1377 0.60686
12678 1448 0.507617
12611 9856 5.52055e-05
14831 6420 0.162829
6630 13463 0.573487
15776 727 0.0107554
11232 6903 0.271015
3026 14534 0.379334
5248 930 0.281718
9695 6964 0.482358
8650 1472 0.712923
5504 8430 0.612229
11736 19078 0.585205
12742 2155 0.56278
18366 8659 0.284881
473 15723 0.309917
18889 9664 0.217545
8718 10584 0.838074
3842 1859 0.729589
6681 2218 0.418719
233 1811 0.590557
8387 11269 0.525312
5086 3933 0.264954
15220 18779 0.470832
2199 19905 0.314394
8393 19397 0.559009
10531 15249 0.95285
9947 7388 0.0362774
14872 6623 0.465465
5807 16285 0.338837
6840 9256 0.482765
10523 7563 0.613611
10544 11070 0.554917
4246 11422 0.701097
15502 8124 0.626285
4317 4168 0.546824
5847 10655 0.0998006
3544 17730 0.140206
4874 9951 0.438574
2075 15599 0.533417
2546 8535 0.971609
1056 17851 0.0363497
886 14389 0.611644
7053 11626 0.271993
10543 12405 0.665107
1424 10422 0.538246
12831 11186 0.8988
10571 7236 0.489609
10514 57 0.620492
18486 806 0.855436
1556 1232 0.479175
6348 3371 0.175313
4055 4569 0.896087
14737 16110 0.888523
4366 16282 0.532368
6584 6130 0.331692
4677 746 0.133366
1036 14131 0.233242
993 9319 0.735539
17849 6811 0.905645
5233 6396 0.302318
17979 12074 0.322654
1227 12373 0.64374
8788 1797 0.212057
11473 16686 0.690972
12302 18623 0.972075
5453 4827 0.125485
5939 9165 0.685747
467 11133 0.0998727
12279 10733 0.467124
8863 2043 0.922206
10240 13965 0.617658
3349 5026 0.0935737
4383 11525 0.589204
628 1248 0.150124
4359 7957 0.372131
5011 564 0.0768902
13134 19007 0.370667
6660 8485 0.797407
12246 8412 0.77946
18781 4773 0.619693
2939 1594 0.497037
6580 7701 0.515462
4220 11759 0.360246
7329 7547 0.933899
7207 18484 0.299007
19783 3354 0.533928
15005 7474 0.106384
18370 6079 0.00852214
11554 17012 0.42752
2283 8471 0.378975
3893 6938 0.275257
8482 5663 0.940495
3065 7395 0.842813
3402 2495 0.62672
9641 4723 0.254595
6432 7865 0.355977
9071 16855 0.244468
1124 13249 0.660962
3453 9505 0.496625
10341 9273 0.181823
12614 3700 0.40123
3333 1712 0.681797
1765 11044 0.664046
9550 11238 0.435312
9492 16400 0.600663
16248 16862 0.651045
14330 4400 0.749916
4009 10809 0.602625
1532 19125 0.711862
19858 10389 0.276723
322 9331 0.453264
4336 10748 0.29119
7082 4447 0.931887
3394 1004 0.057637
11882 5756 0.775145
17913 265 0.985394
2022 1089 0.871931
4502 15311 0.208475
11791 6202 0.182391
4922 4592 0.246167
1989 3734 0.307713
5169 11872 0.716923
2527 7151 0.941687
10981 9653 0.975378
664 3956 0.953557
14 1202 0.480696
15293 3436 0.32466
3507 3275 0.0489097
9369 16952 0.205154
1552 9000 0.451149
12654 3423 0.250327
11817 6559 0.98961
11806 11880 0.464425
3399 7419 0.0904391
2729 1614 0.984997
11753 8579 0.792312
1051 6992 0.921037
11595 6146 0.748543
15544 4870 0.249731
2889 18253 0.172081
6154 8415 0.43809
10299 11873 0.438111
8592 10468 0.228427
4482 4317 0.874454
9361 14058 0.271965
10910 5340 0.164703
2544 2368 0.25433
11364 2420 0.331692
7479 7183 0.62434
5818 7004 0.729256
19433 3679 0.944394
1220 1107 0.352104
4254 6882 0.183715
5107 6852 0.182933
13403 17662 0.143922
3879 1680 0.658087
3288 598 0.64041
9529 13865 0.441068
379 5145 0.062136
1128 10302 0.15616
5428 9180 0.499378
13367 6318 0.154669
13849 14601 0.557121
129 10126 0.18107
3741 5757 0.071206
9356 3199 0.622388
2361 10128 0.358672
9079 8313 0.955053
6391 3310 0.321656
3411 215 0.400861
9855 16754 0.764065
16169 1278 0.675488
1044 16393 0.127387
11892 6314 0.392706
6000 11973 0.0441277
1952 6837 0.703986
5640 1380 0.985408
5101 10689 0.73604
18141 2586 0.497088
12485 6259 0.594964
10900 16900 0.787701
4865 5299 0.0036351
6416 7203 0.951305
3000 5399 0.432995
5030 6272 0.213606
11081 338 0.0722366
19152 2222 0.424012
13622 18908 0.424539
9135 5258 0.434289
11205 3499 0.10948
3520 19780 0.654562
9341 8368 0.234965
12586 6676 0.414969
16890 11487 0.304844
11772 10488 0.373998
5010 19462 0.679596
1888 18695 0.14119
9540 9879 0.133365
4209 9571 0.695303
10286 1474 0.361158
4752 9936 0.391934
12156 198 0.902563
16974 10551 0.0490953
18460 1856 0.124456
2886 19866 0.972802
19408 3442 0.392988
4879 8870 0.599535
7022 9803 0.499473
14163 3328 0.852014
7652 6019 0.281303
13037 11880 0.487438
13446 16120 0.0542527
3045 7354 0.703953
8577 6448 0.511586
6548 17189 0.986163
15528 16595 0.565094
2047 8462 0.853418
5906 8029 0.181305
4699 840 0.877174
10646 6109 0.826514
13388 7066 0.822797
4388 17266 0.684662
1866 12501 0.981775
3921 6591 0.620957
19059 9525 0.489073
7549 8868 0.101865
666 844 0.246857
1306 9363 0.732532
13334 12414 0.0021123
10429 1657 0.0189345
642 2231 0.891763
13090 6307 0.0969461
639 9824 0.370221
4792 12531 0.855064
19497 2584 0.493036
5393 8617 0.0123595
10719 9059 0.546246
14934 18496 0.400213
18370 2274 0.369246
11036 19759 0.696093
2545 19366 0.662764
1039 6906 0.377158
18134 2045 0.756188
1804 6729 0.162829
17141 1419 0.0137508
11397 10600 0.235481
1131 228 0.505073
1928 5440 0.217015
9700 5405 0.604676
2261 1090 0.265817
1300 3096 0.914678
11229 638 0.578299
16922 15733 0.565868
16024 9716 0.950924
18322 10745 0.308317
1923 8309 0.618991
15880 1840 0.736058
18839 3689 0.176263
6646 456 0.784766
11069 15443 0.433585
2146 4116 0.617201
5889 3607 0.739181
11240 4267 0.175804
5902 8620 0.607867
12683 5615 0.439929
5904 12174 0.564592
2599 5244 0.926702
17543 3691 0.0317469
5073 4237 0.146329
11927 18866 0.166045
1577 10851 0.758836
17661 10745 0.489506
11254 12587 0.535354
8249 7441 0.910502
14038 7599 0.35079
3294 8475 0.632601
581 3498 0.482917
12146 16965 0.569568
19076 12616 0.873865
7859 2892 0.802783
1521 3013 0.70741
15101 11525 0.830916
1086 7983 0.436412
131 14750 0.474325
6774 6985 0.168285
1016 10072 0.0470544
4608 7190 0.914792
17652 11567 0.116721
4717 6832 0.804526
12256 12747 0.299925
7865 6665 0.710967
17871 11557 0.96894
9352 3922 0.218296
10246 7937 0.0214998
3551 12502 0.283225
13555 17697 0.548692
12480 9915 0.619561
15840 17395 0.660534
6473 1646 0.146136
5371 3401 0.467096
10105 1985 0.127554
12759 17369 0.278578
15749 2661 0.037161
6074 17692 0.0969166
18387 2539 0.207847
9020 6758 0.0299587
1570 128 0.751296
5019 17717 0.846322
3116 12168 0.87203
7247 7442 0.558073
9808 546 0.883877
9641 3283 0.87929
204 12888 0.671707
10888 468 0.409221
7712 12778 0.755902
10374 2576 0.94628
14071 2271 0.643789
1004 4097 0.999623
2721 837 0.672173
12333 7744 0.376519
2924 131 0.0287734
5604 18651 0.81733
10727 5821 0.75554
7122 1836 0.790967
19936 7304 0.532776
8308 12613 0.664374
17184 19548 0.602874
5399 13060 0.0225778
12184 14302 0.105616
5428 12400 0.765399
4192 10775 0.314866
2687 13231 0.230318
15547 1582 0.569447
7496 3298 0.0617587
7347 4026 0.0872434
12564 11511 0.103321
308 5958 0.0848257
984 3718 0.269487
12470 5480 0.328399
929 8924 0.894061
9777 6828 0.898987
4367 6801 0.0806672
249 19863 0.382422
1765 2271 0.335348
9815 3517 0.0777997
3044 1770 0.911123
5491 10041 0.41934
6252 3978 0.825945
562 8448 0.788402
9174 19105 0.453727
1062 19935 0.947337
2786 11094 0.842344
13714 6955 0.00424125
13792 7236 0.62082
11672 16240 0.848952
15147 6259 0.811443
13792 8422 0.529166
3594 11772 0.181784
6944 1079 0.203371
7341 10896 0.505903
18975 10930 0.63281
2985 2592 0.929136
12474 10720 0.992453
9914 201 0.855469
7210 11880 0.810567
3940 9055 0.316771
3171 11125 0.53672
5724 5812 0.624059
7159 12438 0.730977
19776 6719 0.91097
6368 8414 0.805649
14786 9531 0.667571
4250 7127 0.314156
2836 6177 0.497298
12897 10916 0.619406
7946 18990 0.401992
83 17131 0.391041
13850 19654 0.913211
2708 22 0.224531
16648 9456 0.242211
1597 580 0.318426
11597 3163 0.763099
4638 180 0.52807
8383 29 0.562002
9122 11834 0.142153
12232 5493 0.327663
5597 15649 0.440179
801 7419 0.905645
14943 13430 0.765088
6019 12833 0.205962
4498 6321 0.403535
11057 15645 0.625748
10626 12371 0.450965
4640 6234 0.142855
18820 6959 0.437481
17419 12893 0.530026
3077 18721 0.671781
2424 7777 0.149162
9170 11566 0.388999
17155 2028 0.0959555
15339 3577 0.38407
11753 8922 0.594694
971 6989 0.561328
909 987 0.970743
14476 3091 0.790984
13407 14930 0.87296
6440 12537 0.0865449
9614 6356 0.0919075
4261 15121 0.832703
8693 4247 0.395399
19197 14390 0.0192157
5161 12109 0.0326317
12097 4031 0.0551459
8875 8033 0.291514
8486 8789 0.891646
3968 14131 0.895307
5757 3983 0.125866
8122 6419 0.360847
884 2870 0.793055
10920 2266 0.677702
15934 17924 0.817009
18084 6542 0.605367
11894 17964 0.956438
9204 5079 0.723012
8693 9315 0.463458
5315 6564 0.725006
2756 7858 0.143792
88 10977 0.918108
8127 4657 0.127226
5906 8824 0.421886
5841 10043 0.699839
10506 17153 0.517512
4053 3530 0.975738
4691 12480 0.0642224
4452 6631 0.79163
3770 3772 0.295258
12014 14988 0.158951
15585 5378 0.635393
10812 9905 0.978059
13166 7336 0.898082
6405 8896 0.0107628
19440 7138 0.383502
17084 8949 0.00638775
10120 1339 0.772979
8925 4827 0.0328138
12187 2490 0.276456
7938 17383 0.249535
232 6873 0.117236
18558 4253 0.106388
487 4561 0.769913
3104 4859 0.697384
4462 17478 0.105691
1558 11729 0.802918
595 8335 0.981734
5010 5537 0.92033
5840 6576 0.668701
2419 8716 0.060108
16405 9456 0.673792
6254 8261 0.825598
5388 3916 0.162409
681 6959 0.714385
9008 11108 0.749817
14961 19136 0.398947
7402 8584 0.923264
8412 6510 0.737356
10307 2743 0.320944
423 3169 0.788761
14282 5058 0.459085
5218 17762 0.957451
11136 3269 0.367749
3198 8584 0.719269
11868 9199 0.119307
3155 150 0.232243
1686 18735 0.229844
11863 8063 0.813893
2227 17329 0.58586
994 7713 0.887484
11653 3970 0.205509
12061 12467 0.445311
7336 4171 0.185165
18918 8877 0.851719
12295 3890 0.351431
4541 5262 0.541015
4233 6915 0.374888
19089 2255 0.175204
11437 17501 0.619784
13350 11673 0.960114
4307 8024 0.483283
2575 2455 0.999404
10910 5949 0.636035
11730 4902 0.299955
14140 17835 0.192081
6486 130 0.362987
323 6165 0.260139
13410 9299 0.246831
14934 3547 0.170493
15087 7452 0.0967608
12073 17016 0.402656
17273 7498 0.560451
645 10226 0.733192
6533 9584 0.687292
19978 3914 0.690655
16055 2527 0.6417
15168 18457 0.954926
1813 4753 0.677312
1312 12689 0.150183
1566 7795 0.186549
8726 19426 0.747545
11320 4498 0.817036
6384 18650 0.712117
8428 2278 0.298377
16509 14532 0.995875
15324 10566 0.607943
9445 10991 0.636202
16448 17024 0.947007
1323 1229 0.984129
16247 8383 0.301644
6150 14178 0.0166282
4882 1475 0.968152
8390 9459 0.434306
11091 5489 0.644715
2054 3136 0.805339
7441 109 0.285333
8591 9975 0.970447
7052 7263 0.817278
15432 2117 0.310893
4323 17437 0.796619
11660 15251 0.465403
16949 6221 0.19985
3095 14429 0.869024
19311 6600 0.609923
10158 9730 0.248198
9182 1834 0.378953
9501 11506 0.992381
17103 8635 0.292014
2936 1150 0.668035
9621 10511 0.498102
11608 11195 0.785714
5345 16588 0.334855
9523 2071 0.354256
7866 15832 0.32954
7716 13024 0.724522
5204 12367 0.617709
10807 2042 0.600052
12310 11514 0.150556
18561 7857 0.78745
3342 14109 0.475506
16553 6927 0.28231
4090 6193 0.92494
19830 707 0.281332
15029 15432 0.0603525
1421 8845 0.771571
18838 1246 0.678919
2226 15760 0.121759
18278 10960 0.200222
16685 5149 0.0696519
12145 4370 0.397048
16329 3160 0.990876
477 6990 0.212889
17133 865 0.79421
1863 4465 0.224764
12965 2597 0.814623
1228 2623 0.364315
9870 19836 0.395378
179 6831 0.894861
2205 9818 0.488749
5649 12851 0.0855891
11878 12701 0.998459
12689 14441 0.531626
3393 7669 0.638212
9086 13193 0.420073
762 1751 0.935681
7948 1325 0.958337
1021 10409 0.713017
5713 12934 0.788415
5224 15549 0.630512
11805 11362 0.988765
6156 4662 0.642517
11539 10941 0.873914
18327 7088 0.331433
8626 6493 0.350926
14538 19661 0.82922
14197 11521 0.274714
11022 15275 0.774588
5350 11944 0.628592
11546 11969 0.537201
10757 7144 0.049599
11676 7878 0.55122
8684 8510 0.188116
3813 4182 0.0841927
7218 16461 0.196143
1364 1839 0.854951
11243 19112 0.299506
7300 14285 0.310589
2084 1992 0.777217
3095 19034 0.796525
4410 11855 0.734644
4545 11185 0.549617
11445 16172 0.370104
11224 5112 0.306945
4149 6352 0.0291644
5193 16737 0.757822
4574 12610 0.900847
3276 14832 0.0585072
13341 8982 0.988939
8319 9055 0.0924066
9975 10673 0.466834
460 8262 0.0379549
4439 8931 0.316666
553 18965 0.614175
11678 16489 0.774882
3894 12145 0.68893
2624 12409 0.531665
10651 4418 0.578434
4390 7811 0.296439
11699 11334 0.760829
3168 210 0.0788541
6459 7880 0.409527
8442 10615 0.474857
923 6429 0.164965
769 1563 0.544533
192 3619 0.385771
4839 6669 0.527742
795 11968 0.666502
4134 12543 0.770467
4491 13009 0.93349
9143 10410 0.797984
19307 6498 0.153967
8534 16486 0.0831619
2366 18211 0.102181
12824 16936 0.160334
16121 4410 0.959874
3813 19526 0.825609
8856 16568 0.641894
6065 3390 0.299698
1545 5803 0.932987
19291 11626 0.469701
9947 1160 0.233902
6344 5251 0.535661
19339 6311 0.808339
5052 3551 0.80948
2847 207 0.282371
11133 5728 0.634412
10641 9462 0.683902
6560 4034 0.662498
7072 3968 0.481347
4042 11389 0.0535486
7937 3387 0.166518
6893 18481 0.0448146
10006 3815 0.145008
15716 4020 0.628259
6284 6304 0.432022
6290 8571 0.173063
10290 11324 0.829252
15305 698 0.250426
10786 4328 0.148353
8986 12098 0.197296
10148 10188 0.605494
9285 11238 0.492925
4960 11611 0.532207
14372 8174 0.842804
12278 9761 0.749228
11804 14175 0.392152
17061 2636 0.869263
11708 6256 0.379052
6233 10696 0.487913
11741 15276 0.5492
8997 3059 0.45411
12524 6038 0.323464
5270 4543 0.468368
4962 10956 0.549526
19674 4846 0.984941
17832 13479 0.578
14075 11778 0.123902
11474 6119 0.268398
19718 10521 0.150553
3889 6445 0.80697
2895 10544 0.51698
10905 970 0.912852
11439 3356 0.919819
4778 3998 0.253741
7213 19658 0.290298
8124 5437 0.395022
18538 8355 0.914757
5309 6178 0.708266
1532 18387 0.0806672
1319 2444 0.0883943
483 12134 0.444471
18945 10592 0.770708
1764 3954 0.247476
1882 10213 0.733891
3036 8774 0.0818324
1577 4768 0.115205
19154 15248 0.424291
19411 12670 0.224656
19603 9011 0.0439608
262 2142 0.646652
8666 7710 0.281244
1520 2523 0.23366
3223 11854 0.316266
10111 12820 0.107759
13576 12824 0.305056
13027 19432 0.954618
6497 12158 0.160305
5166 16538 0.965117
14797 17675 0.842748
8770 15008 0.888715
7474 1114 0.177112
5592 11648 0.52046
5675 16491 0.825842
3660 8337 0.803123
5612 11298 0.0965153
5793 9738 0.739969
7012 536 0.973736
9460 15947 0.337116
5578 5485 0.0559589
2335 1914 0.164999
360 2964 0.123116
1279 13056 0.940495
4356 8660 0.457064
9063 3169 0.0320048
3743 12361 0.517148
12004 5253 0.792599
13191 17771 0.18318
6721 14281 0.780652
18991 4937 0.939533
12320 5140 0.116523
7166 9733 0.741201
6923 5887 0.437135
12913 12472 0.95944
7689 2433 0.176134
6699 10391 0.683756
17269 14311 0.0631848
11974 1632 0.375138
1098 10749 0.597802
3809 13321 0.186055
12066 3500 0.122285
17985 8641 0.620214
6075 8479 0.691396
9632 9796 0.357065
12392 5584 0.826015
4530 2732 0.757325
11581 5604 0.146436
9581 3555 0.786154
19286 10434 0.658246
7046 7564 0.475004
14738 12245 0.357065
11612 5287 0.992138
730 5251 0.707532
5862 8896 0.581716
3096 1439 0.0129169
5523 2973 0.932248
4757 7326 0.820979
9785 5802 0.426974
5440 13209 0.70488
12338 11688 0.655032
3410 6972 0.977862
11209 18471 0.829975
3525 144 0.32717
909 6894 0.866845
4806 9675 0.411477
3987 2789 0.617751
14318 6873 0.393637
17951 12786 0.0588971
3520 16853 0.926236
1136 8570 0.980505
5610 1647 0.522544
5012 10797 0.48473
8806 6077 0.427859
8452 11036 0.569992
792 13118 0.604559
2411 1454 0.23732
11320 2392 0.346495
51 8895 0.44614
1859 12670 0.0562154
4710 11849 0.0625387
19465 16804 0.612836
5759 8373 0.310687
16268 4562 0.670376
999 15090 0.30597
286 5023 0.744817
18266 2056 0.312021
1311 13032 0.34742
13704 7706 0.906944
6302 16937 0.377374
11232 7028 0.472819
9267 5864 0.690957
19391 616 0.591291
4848 5581 0.19863
18021 4978 0.211578
9769 13313 0.547295
14539 3058 0.592002
8522 5081 0.396909
1776 5727 0.744993
5269 19224 0.848768
6405 920 0.126166
705 11598 0.833691
5579 19547 0.547574
11310 11017 0.253231
3918 2063 0.530855
1550 6253 0.696009
3534 6458 0.451535
551 5594 0.747545
8041 10979 0.639453
12597 7150 0.669486
7111 666 0.977272
5824 16190 0.647862
2998 4692 0.43967
1231 4076 0.796049
18224 11958 0.273361
9499 9183 0.412275
2138 12181 0.175588
9310 9182 0.019471
3875 1902 0.608029
6160 6894 0.497096
11278 6079 0.661984
10332 16107 0.0243931
14653 5724 0.154973
4062 11618 0.197775
11645 5212 0.435793
713 9158 0.507539
16004 1464 0.60141
5182 8558 0.663783
19060 6132 0.921359
3106 10704 0.199461
8237 10361 0.884343
16413 18829 0.4057
9406 10378 0.89749
5603 9901 0.514225
1590 5331 0.317309
14002 9556 0.747077
19949 1482 0.69116
10385 11296 0.00802258
11859 19409 0.923112
8119 116 0.809524
8027 7442 0.136348
12297 19362 0.393616
1777 9822 0.276631
16785 12852 0.916675
9500 220 0.380164
6443 19153 0.923692
6693 476 0.511535
11067 19387 0.669666
8698 15590 0.558713
6493 11364 0.415893
13935 18042 0.0687078
5907 4363 0.176491
6205 14922 0.633105
12355 703 0.48551
11369 11127 0.66548
8906 9097 0.546515
10054 4170 0.0150246
667 7853 0.268544
7508 9875 0.0481139
4232 13115 0.530695
6012 12448 0.466834
982 12092 0.109623
3655 3664 0.794394
15146 15229 0.809423
7985 6008 0.297505
15886 3470 0.507539
7053 4185 0.634183
19998 5003 0.234805
10060 2158 0.147626
1041 10195 0.110681
16494 1610 0.990325
11347 6993 0.149268
4470 1068 0.194232
12101 1296 0.990366
12319 711 0.273323
11520 7594 0.461329
2150 5032 0.233075
8075 9645 0.910597
12755 5849 0.877593
7458 10580 0.926692
12656 13702 0.426974
12745 9153 0.210464
2656 13357 0.931407
4804 10511 0.489969
15723 11281 0.88407
3110 2914 0.601403
268 1454 0.273645
782 6182 0.545284
8410 19998 0.23848
2168 9284 0.177593
11069 4159 0.415469
3740 15454 0.329908
15963 4558 0.280647
7637 7768 0.0259768
1304 5979 0.690601
1826 3674 0.0243931
16605 2191 0.425792
10912 11024 0.124191
11044 5630 0.0949387
4979 4359 0.764804
8303 53 0.935338
8374 4415 0.584098
18428 229 0.390816
18823 546 0.476114
12447 4365 0.692056
12387 1781 0.199768
15954 6512 0.668053
140 12368 0.486633
4719 15538 0.435193
2273 6492 0.17071
5054 6904 0.774339
1730 8531 0.838064
4648 9735 0.215747
3851 2826 0.31151
208 11225 0.295042
5412 170 0.132329
13105 19528 0.50008
9823 3971 0.65304
11224 9293 0.551077
6473 7112 0.538714
4650 7047 0.460483
14468 11573 0.609123
7924 719 0.337145
3116 3894 0.880741
9797 3759 0.315661
10590 9843 0.934323
3471 18 0.0810091
8171 3208 0.766882
4441 7938 0.588257
6604 19313 0.439906
820 14072 0.324012
19659 9590 0.896682
5436 5647 0.588826
8342 6516 0.244529
15455 3835 0.939528
9840 11449 0.214475
329 4819 0.0970087
582 6765 0.687173
4736 9224 0.624238
4953 6244 0.262782
18887 14028 0.073847
4772 11622 0.195158
489 11660 0.66278
18076 17928 0.00283546
19596 7315 0.703294
2793 13588 0.699555
5115 16434 0.951918
11837 10577 0.253322
2057 3772 0.222204
582 471 0.275442
2480 11827 0.153326
13705 18015 0.737888
3244 9694 0.693265
4148 4300 0.805785
3481 14473 0.293398
18169 7085 0.245568
5369 7250 0.0332259
3357 4170 0.707795
7698 3213 0.821322
12306 6198 0.714857
11904 1288 0.0920495
5759 7625 0.700848
10712 1996 0.840638
19431 16697 0.595829
5919 3681 0.952832
803 8923 0.10151
9162 8394 0.460692
11741 7978 0.0180217
3084 5661 0.924093
10686 5123 0.448651
15346 9475 0.87821
8847 8906 0.453419
6206 3005 0.809102
6175 8774 0.804488
11619 16796 0.261463
18932 9410 0.941879
2671 27 0.199259
5274 8505 0.506098
16614 12457 0.402148
1611 4979 0.471938
19587 15140 0.671407
17992 11859 0.459655
5772 7421 0.548111
6697 6204 0.122987
10267 7828 0.299537
11326 13216 0.0211846
11821 12171 0.677422
79 2877 0.630232
19032 2260 0.0680706
5948 6057 0.542958
9994 11814 0.0994243
1876 16354 0.559327
11875 5436 0.980687
6986 9059 0.933795
11004 42 0.317186
4914 17514 0.753314
2078 3608 0.367829
3676 17338 0.663155
7792 1843 0.617502
13550 3635 0.882691
13785 6570 0.383352
7569 11575 0.164308
10626 4323 0.81913
16234 18531 0.873741
5301 8776 0.424401
11903 7675 0.974678
4487 18836 0.400646
8722 2273 0.0692614
10425 758 0.197465
9724 17540 0.572119
5912 1749 0.294342
7947 4922 0.824943
4184 8614 0.0472203
6235 12334 0.30096
6451 16191 0.129134
10591 6319 0.576429
8007 12414 0.88621
6415 2935 0.711631
4583 14022 0.627631
12569 7011 0.966381
7880 996 0.652011
3919 8024 0.940942
872 1443 0.188617
2097 3464 0.732345
3358 16046 0.132579
11275 2121 0.672939
11307 5816 0.523569
14052 18014 0.200927
14308 15354 0.360572
12157 6377 0.978014
884 8811 0.702179
900 15368 0.868912
8885 11711 0.587364
5607 11844 0.833935
4744 5132 0.339373
12037 2381 0.758152
19262 16998 0.725521
5548 5689 0.638499
7747 13957 0.874461
4012 8761 0.594268
17635 5225 0.495242
4901 4875 0.128492
197 12864 0.820608
5750 4482 0.902183
9816 3558 0.509928
3877 3235 0.194124
12072 16 0.869386
13543 5716 0.788299
17937 9928 0.927873
8872 16495 0.316009
12552 9105 0.827553
14308 8468 0.606498
14065 6368 0.377069
615 12684 0.126762
10912 6210 0.22711
12326 4851 0.56789
5639 3852 0.605671
17688 7587 0.969846
9219 18044 0.215092
8397 2778 0.903896
7246 16715 0.881826
11401 13311 0.139456
7503 12330 0.701895
8822 19521 0.755111
10381 18604 0.619396
2305 11524 0.0780726
11421 6983 0.699852
14125 5483 0.359925
10196 3868 0.678282
9242 7830 0.450268
11992 7958 0.730986
8541 4275 0.333947
10957 6170 0.427468
4261 19451 0.80365
12277 5341 0.413457
2861 5031 0.00786011
5848 662 0.0218909
3352 8544 0.0162525
9413 8878 0.685852
7879 5143 0.855819
12418 13311 0.24821
11776 6078 0.487826
1426 3164 0.540354
7176 14018 0.502692
7317 7795 0.666026
1213 6447 0.985051
18864 8337 0.924283
6351 2930 0.251699
11224 1447 0.416895
10651 3440 0.347558
18866 10895 0.78239
8555 6925 0.683095
2990 1810 0.909022
16877 13330 0.0892906
7288 1763 0.671967
11079 15265 0.482083
1551 15731 0.725321
4711 975 0.242083
11948 17667 0.634281
4506 6715 0.450539
1383 11079 0.361665
10542 12594 0.748118
4290 11010 0.203983
4362 6052 0.485
2340 13681 0.138655
10268 8457 0.605655
12664 3297 0.357283
9009 12510 0.579433
2269 3767 0.542022
11304 9379 0.14302
1891 6981 0.508567
47 558 0.625967
10775 16239 0.455904
9514 3114 0.332482
10014 2487 0.802519
13437 4577 0.514225
17509 14689 0.312103
5170 4175 0.773081
11123 8586 0.691499
5174 4159 0.172151
4893 19741 0.192051
5816 10250 0.380787
16024 7853 0.994526
2249 16 0.378953
13898 7613 0.633714
11624 10619 0.160537
9884 10284 0.0924066
19452 8350 0.615279
9741 11109 0.0531025
10595 12800 0.554082
14337 16099 0.483584
13874 12733 0.80609
8141 1133 0.402297
9189 7690 0.0664207
16040 6713 0.454144
15358 4164 0.632017
15337 9611 0.278904
3146 18311 0.47231
4820 3841 0.820154
8713 1398 0.303408
8046 7569 0.232599
12715 16009 0.387426
1376 4137 0.963802
6001 7091 0.371402
10948 7801 0.29043
900 17122 0.777624
8117 18106 0.0351556
16047 18578 0.496927
19879 9319 0.481315
4035 12817 0.780022
11213 9484 0.833332
15004 4772 0.426984
2121 1640 0.215716
11548 8454 0.296439
6097 11111 0.0582359
9294 10989 0.418731
14908 13233 0.780698
14112 2364 0.764595
18868 1850 0.211983
8851 3877 0.924738
6571 2435 0.286995
2808 2964 0.727935
5151 12025 0.154272
2118 3885 0.801889
15544 19428 0.708291
12369 12049 0.310848
2970 15362 0.809181
7187 4018 0.23178
1380 10781 0.728077
9105 6931 0.340812
5876 5745 0.629931
4489 12153 0.109499
12099 18476 0.991103
19967 12359 0.614847
9583 19147 0.52822
17936 10771 0.154382
1661 9733 0.0391656
4440 7901 0.145008
426 3922 0.331792
19419 3650 0.396219
10775 17987 0.695067
18980 4252 0.918447
9775 1982 0.660433
547 19689 0.343991
16406 7828 0.390942
9827 6008 0.669983
10438 3184 0.618423
2824 17554 0.250188
6938 6634 0.417739
5898 1846 0.170653
4058 14756 0.308444
1222 7985 0.753701
18550 16616 0.997868
16996 12365 0.59331
2640 8751 0.138388
7967 13688 0.745859
4273 11206 0.720273
6285 3551 0.477913
12482 9185 0.995727
3003 9804 0.269399
2322 11676 0.110271
5142 16342 0.0267043
3151 12729 0.294141
1113 4742 0.779934
19115 7667 0.448228
8294 3428 0.419407
12755 5894 0.698586
8399 7004 0.838819
9468 10926 0.910166
2887 86 0.141277
10177 19963 0.427639
6012 5610 0.457217
2995 4126 0.409774
13154 10600 0.999697
669 3520 0.285562
7001 4493 0.333049
5632 6851 0.850854
11195 270 0.263996
540 10581 0.479546
8710 5274 0.888468
11059 7070 0.837528
6705 10042 0.430391
6840 15187 0.829475
17272 8531 0.160829
19411 5849 0.965067
7132 223 0.965188
8397 498 0.825842
10465 5010 0.104522
7874 9219 0.213212
2673 58 0.975459
1797 1189 0.507272
3506 3710 0.925808
163 8708 0.751373
10547 12995 0.250457
5318 19234 0.730915
786 10446 0.0679278
5227 7276 0.0873871
5882 7150 0.409627
16640 11606 0.260635
2683 10572 0.133511
3660 9073 0.818697
7062 11390 0.505212
6901 18119 0.242735
7442 5973 0.989166
4166 2339 0.763394
17329 10783 0.489248
962 4019 0.838064
17168 2226 0.395269
4031 8843 0.0956611
2524 16767 0.983837
290 15021 0.600663
17672 12217 0.825652
16444 390 0.346159
5052 5538 0.772627
7918 14299 0.495988
11489 1814 0.901649
14118 13133 0.457795
1443 10212 0.259857
7090 16226 0.341004
18396 9091 0.32627
3504 10621 0.178968
10730 625 0.600306
18391 6898 0.345752
12231 13578 0.330853
10052 19117 0.280271
7010 11883 0.341017
11398 16381 0.709518
1022 6040 0.895648
5042 9761 0.790159
12944 8016 0.393574
2122 15510 0.458543
14488 871 0.0815489
6864 17116 0.658977
2707 10051 0.941546
5712 15423 0.375478
11837 13058 0.412657
2639 19549 0.149235
2233 4841 0.885788
3806 4193 0.817823
14234 4330 0.672764
8283 9463 0.895852
15729 10856 0.824695
6611 2381 0.346748
13233 6451 0.811865
1096 12387 0.2523
13482 9964 0.148255
4933 14650 0.69397
11424 15209 0.384584
314 6202 0.616774
14813 868 0.252644
11334 13597 0.870933
8149 4323 0.245017
13100 10319 0.30745
2631 1653 0.0173515
5289 17789 0.847853
326 11295 0.500017
8786 17121 0.684965
1436 19613 0.220735
3077 11635 0.552522
13822 11504 0.0513045
15393 10431 0.136461
7972 4098 0.261922
2565 13148 0.885516
17528 11235 0.585518
16922 19307 0.473875
3959 5501 0.736032
5101 16544 0.62052
2704 9962 0.301674
6941 13440 0.597341
12773 19378 0.739549
10119 5831 0.633071
5548 18550 0.504949
16289 17856 0.303493
15380 12595 0.557639
10254 718 0.680905
11199 7214 0.858714
16083 6531 0.100921
12328 2825 0.470592
4507 10902 0.0470592
940 8325 0.411311
9783 10693 0.656495
8735 11435 0.194003
8483 826 0.374097
706 13630 0.0189257
2244 11963 0.0538642
1805 10968 0.0395261
11086 14624 0.471561
4053 11525 0.404863
5930 15595 0.334423
854 5094 0.950392
3913 8103 0.653162
7433 5382 0.562992
1537 2437 0.989546
3162 12277 0.548719
3873 12903 0.828124
4913 368 0.000636739
18639 1451 0.234481
6371 18461 0.665953
2445 6873 0.976656
12438 10425 0.0999028
10574 9410 0.29276
8117 15678 0.66278
7257 8237 0.346067
18542 6138 0.638939
7750 648 0.955253
4596 12791 0.324556
3601 4647 0.634259
11806 9867 0.111462
1908 4479 0.564494
16854 18608 0.679708
499 4907 0.854738
1610 2101 0.983666
4687 7546 0.0555765
4375 160 0.717497
7374 3180 0.361823
5245 13722 0.0244914
9961 2725 0.221996
14036 10972 0.980827
3530 688 0.152681
2652 13225 0.854074
1630 7104 0.617108
14072 4631 0.060758
13624 2827 0.0659183
735 427 0.522559
5263 17224 0.52978
8759 14093 0.449171
7882 11615 0.263443
2368 18130 0.343495
2172 7065 0.831113
18978 3732 0.760181
14264 8037 0.637825
9783 11005 0.0696519
6780 16551 0.600723
11092 6198 0.652454
3780 17084 0.123988
11813 2122 0.7996
13000 17893 0.852282
7698 17610 0.512686
16951 15803 0.541282
19400 5073 0.543028
10403 5955 0.95944
4941 8263 0.594074
10361 7070 0.552182
3841 9583 0.735868
7171 8480 0.735272
19090 17514 0.0366134
6492 229 0.392202
14606 11683 0.182933
9996 5674 0.261985
3224 1690 0.278907
5923 6552 0.438152
9686 931 0.445502
2256 4998 0.558713
435 7719 0.914308
10284 4947 0.602866
10814 1495 0.675509
3224 316 0.0698919
4692 13835 0.737941
10054 12582 0.906063
3424 4408 0.126635
10977 8019 0.329121
5374 11163 0.100921
6756 5722 0.286448
9347 7406 0.106091
17670 2457 0.88985
2217 1202 0.770515
1003 1698 0.947948
9620 3173 0.477947
13960 13915 0.571904
1935 16997 0.754457
7909 3510 0.0390136
8560 15935 0.606221
11875 2491 0.974914
12241 15450 0.721461
18126 1705 0.515362
10979 14332 0.437293
10795 4306 0.977243
10808 13949 0.551185
17499 9872 0.305705
19480 13396 0.114647
12685 18488 0.102332
2848 10785 0.212636
4129 2274 0.98279
8646 17986 0.696771
11494 4983 0.462472
5864 2069 0.726532
4960 5970 0.255347
8793 5827 0.440416
899 16309 0.504836
9259 10920 0.300752
6807 12315 0.480793
9075 8317 0.117729
10796 11347 0.783788
7241 10663 0.587908
7604 11410 0.667571
11072 2156 0.928857
9725 10693 0.740866
494 12207 0.178693
7272 1767 0.194512
15588 12830 0.0792566
6190 7522 0.277225
4938 4038 0.229562
12185 2188 0.869354
9828 3949 0.0920414
3010 8045 0.431395
8173 10528 0.331377
6775 1775 0.200656
5437 738 0.489751
7826 8378 0.0873718
558 6214 0.992895
7568 2383 0.284107
11279 12383 0.234528
1158 851 0.750677
17238 4134 0.761105
11787 4847 0.844568
4565 18166 0.0583859
10426 4720 0.513749
8593 126 0.833936
11955 392 0.248859
4657 3270 0.573827
10613 2188 0.790649
9844 4892 0.948903
1997 6864 0.186188
11355 10967 0.870286
7131 16433 0.576381
1001 14851 0.251421
12888 16329 0.8239
6515 13181 0.364017
1381 19133 0.490679
9757 15760 0.676341
6039 9957 0.176642
8034 2608 0.326251
1777 10034 0.500285
9634 9103 0.834686
6683 19832 0.287505
9039 16070 0.404867
7724 5973 0.597101
10773 4506 0.053386
14193 2417 0.0182393
5863 18336 0.616746
15969 19370 0.108064
5145 7140 0.206412
15332 3471 0.299984
11078 3445 0.127886
6802 3918 0.702754
1373 10898 0.761876
3205 5201 0.619784
16886 2457 0.570383
5808 11468 0.868714
12527 4586 0.454755
7980 5974 0.173532
6285 18589 0.130737
8081 764 0.360887
1026 3438 0.956658
8814 19646 0.981293
19531 15329 0.622474
15676 8821 0.803761
17122 1438 0.251127
12818 10344 0.935527
12443 1102 0.639565
6711 307 0.768223
10433 4211 0.840833
7311 5922 0.404942
7211 426 0.462792
7084 19172 0.717144
15749 10920 0.384544
3333 18512 0.697546
7763 12423 0.221293
2451 10654 0.381879
18513 13892 0.74924
15825 19942 0.295042
13722 1692 0.495593
1318 410 0.00317491
14225 1760 0.284402
7275 12604 0.663259
3833 11018 0.578996
17507 6763 0.417737
8610 1338 0.850454
6395 9488 0.705651
17810 4399 0.353034
18839 17303 0.291367
1424 6455 0.651466
607 3272 0.590179
6577 12192 0.000446326
4166 10121 0.4371
13913 10224 0.196372
7598 1864 0.955622
6108 987 0.597055
5737 13861 0.0178579
13179 16179 0.16699
7553 4239 0.409135
6588 6550 0.167228
13950 8388 0.75282
1589 3528 0.444421
12 11794 0.329816
301 10019 0.635412
9265 13434 0.0893883
19972 17336 0.129437
226 6256 0.0301718
5014 8746 0.938363
6316 16270 0.932054
2051 8301 0.131689
1417 10384 0.972239
7885 626 0.00533021
4524 4792 0.264574
7052 9508 0.72369
18715 3424 0.350633
9873 8654 0.120672
5512 16747 0.913067
13000 7751 0.864211
17941 197 0.840833
930 1798 0.534159
12556 12344 0.641361
3414 2676 0.794429
12682 19038 0.678277
235 450 0.555406
5495 5979 0.219914
18947 6592 0.930455
5802 2628 0.973441
11133 11763 0.904999
5256 3196 0.805223
10990 11468 0.159938
10334 7497 0.424628
10054 6424 0.757146
11667 928 0.174531
10182 12198 0.585134
2559 30 0.717479
18324 18047 0.434106
5911 6448 0.360424
8994 8951 0.96691
7951 6848 0.459589
13780 2310 0.843153
1300 4687 0.805073
9062 10031 0.639447
9463 7316 0.0476519
11460 8369 0.705872
19450 1357 0.915764
4995 8764 0.736746
12199 887 0.907395
4242 16575 0.930515
17113 5472 0.740524
3694 11091 0.827423
9112 1427 0.178272
9542 9802 0.0865252
706 14482 0.401027
9834 12675 0.197
7159 8291 0.21445
5199 6955 0.136458
9187 10910 0.212462
3282 7760 0.703763
5781 9315 0.552174
1216 11253 0.447986
11138 2124 0.72541
8062 5189 0.617201
9179 3213 0.157725
11152 4985 0.724522
10174 1953 0.672367
2624 4103 0.621589
6904 11313 0.462639
14500 3808 0.221293
10338 3327 0.193289
3105 766 0.0810012
9774 12093 0.075377
17365 15061 0.439586
11182 11291 0.83675
7657 4684 0.702179
9669 1248 0.297121
10752 2794 0.574103
4154 5856 0.921331
2602 18864 0.179426
16211 10477 0.866036
6397 11355 0.37535
4241 8123 0.270229
18445 14352 0.194721
14724 2351 0.383744
8491 8243 0.294308
499 561 0.182363
9256 4494 0.103609
803 3043 0.470911
8180 12169 0.383116
11767 13877 0.135621
18970 3182 0.0900019
8106 18646 0.102543
9325 11786 0.897325
5975 2208 0.356206
15908 8843 0.221701
2699 15845 0.569778
7619 5738 0.86136
11198 4618 0.4691
2293 11645 0.382215
5982 16349 0.248312
18254 3500 0.134495
11183 3026 0.635806
12723 3453 0.853471
3611 6146 0.717316
15489 7054 0.814861
3991 982 0.070948
18917 4336 0.902098
3461 1596 0.55025
15245 3324 0.86544
10042 942 0.789431
11661 10371 0.192647
3979 7144 0.103732
14359 397 0.743746
4772 18648 0.626499
768 6210 0.599694
12111 10126 0.471096
11943 5190 0.580461
2649 4371 0.127554
8114 1693 0.42831
192 6612 0.574987
14966 7838 0.098262
12734 14247 0.62082
14029 15975 0.495827
7723 4740 0.591622
475 18152 0.898686
7114 7399 0.267781
12992 16624 0.764111
11246 6926 0.316857
8015 4390 0.402531
2105 1012 0.0669212
4176 4301 0.669666
10651 11639 0.271015
3543 4195 0.599332
19309 3645 0.428146
9010 301 0.0177439
2252 12673 0.393083
6534 10432 0.27016
4251 11468 0.577943
12026 16276 0.93022
10480 14556 0.768233
1846 2196 0.63852
3421 13891 0.498997
19327 5698 0.267167
16955 6286 0.944376
10057 15892 0.486668
10728 13322 0.871856
10245 9649 0.0764734
12706 4488 0.479244
10271 328 0.870732
3231 9937 0.0611683
12217 13808 0.70075
2180 1398 0.570658
5339 15073 0.154049
11911 14300 0.448651
2407 395 0.376282
552 13424 0.45943
11814 18171 0.566552
5342 2710 0.502574
617 1100 0.0566112
6624 19051 0.96683
477 985 0.503824
5601 8552 0.607882
12717 13220 0.8071
6523 12728 0.766131
12568 10381 0.782034
1725 4697 0.342339
10252 8925 0.890878
14995 10979 0.057041
8638 13628 0.927463
2830 18347 0.0383472
2481 4712 0.153923
8525 18973 0.28367
10337 8390 0.325454
13276 13750 0.842752
12407 5488 0.449693
5249 1141 0.127777
677 8864 0.00310634
822 9784 0.299961
12501 7103 0.293741
5815 943 0.793391
7890 5809 0.394678
6446 11294 0.584682
5777 10677 0.244964
9360 12053 0.215489
11853 970 0.750771
14879 2658 0.365325
8230 5335 0.430718
19135 3211 0.831514
2053 11258 0.842531
1357 506 0.111305
19004 3067 0.086701
6528 19740 0.741986
3502 10400 0.928514
3133 3093 0.273848
18356 7527 0.00760108
5470 8744 0.391854
7300 11770 0.415109
10407 11340 0.661674
11554 3394 0.0805875
8912 6565 0.67413
10144 1889 0.287715
4801 18552 0.497626
16080 19088 0.0121275
3967 19828 0.282203
1696 2628 0.741315
4136 16219 0.269063
11539 6522 0.0886759
13445 6187 0.899489
3547 7150 0.0732752
16970 12460 0.298354
1137 9778 0.0272859
10746 954 0.929052
9116 2570 0.255385
3489 752 0.977965
893 7952 0.0986365
17300 16270 0.26003
7439 19797 0.596615
2185 486 0.553049
6981 18697 0.729578
19414 5323 0.637451
17116 4017 0.537464
10921 18412 0.70737
3402 8817 0.11492
1999 1371 0.62052
10030 19447 0.56605
16179 14033 0.713563
7073 7405 0.938387
12171 12723 0.178056
17271 12524 0.0129169
1671 2369 0.886888
5898 11131 0.934586
10102 3772 0.789093
12050 15666 0.0199358
12557 19973 0.49011
10455 9820 0.275731
7751 7482 0.701221
8489 10630 0.684959
4359 12383 0.577668
11914 311 0.342826
7977 19982 0.79955
7203 6618 0.00429004
16719 7647 0.649947
14347 262 0.714049
2835 9500 0.882882
16096 10454 0.602874
7354 3792 0.0438244
2839 6927 0.878447
7857 11278 0.507998
118 8200 0.715944
8226 7290 0.380262
7013 13355 0.804392
11141 8260 0.805135
17318 15916 0.907735
16552 16329 0.886424
1942 6883 0.606532
2885 10629 0.345922
12519 24 0.998577
9329 5829 0.0215332
1038 8069 0.852506
14588 2407 0.766882
17038 5819 0.287503
8707 12485 0.585205
11142 7089 0.00754981
5500 8242 0.770515
10788 7106 0.67814
6268 4605 0.396506
10844 11980 0.722096
18658 9760 0.926597
1851 6474 0.295902
540 6581 0.364508
9054 3525 0.997927
189 1535 0.497867
14461 682 0.32657
17351 14403 0.23178
10418 7808 0.499991
2839 3902 0.919949
16484 173 0.508827
10581 2779 0.809812
7460 15699 0.175102
3662 3621 0.565868
1232 11658 0.118054
8045 14521 0.286838
592 15103 0.93767
15713 9376 0.509303
4530 12832 0.449727
8602 10494 0.711893
18926 14463 0.218127
10353 1979 0.653608
5765 1147 0.115112
7358 5175 0.222126
9745 14114 0.373737
12157 19239 0.804401
10346 7722 0.203356
5539 9092 0.00277497
6854 15535 0.098262
3996 5894 0.38557
12182 13295 0.695134
4174 2026 0.548649
2813 1046 0.489047
10469 2336 0.0826978
4267 11700 0.323703
3111 7573 0.356759
16483 4223 0.62083
2250 9151 0.352586
1909 4532 0.116623
452 11466 0.000799229
13398 12638 0.759822
2490 3720 0.384188
4048 9815 0.0418267
834 17868 0.781484
8231 4291 0.735193
6692 1917 0.404933
14750 17269 0.781143
4393 9108 0.847107
1192 18818 0.12505
2485 4430 0.598624
4724 12465 0.401725
1164 1307 0.689679
15244 7357 0.183729
19930 11661 0.953734
8969 11206 0.987806
5000 14474 0.299239
549 16294 0.937912
5939 3435 0.305756
5977 2245 0.469347
6508 11543 0.839424
8067 4562 0.731685
8604 7315 0.827793
4735 2028 0.664084
14774 2240 0.92593
8157 11088 0.764042
9105 611 0.908041
9645 4372 0.997078
19438 3162 0.367183
5790 4671 0.471254
17311 4951 0.0680411
13451 6719 0.505141
8049 15957 0.826255
14553 11562 0.765084
959 3451 0.255192
2437 4808 0.722338
5948 8031 0.458713
3231 11595 0.296322
12125 4685 0.164192
8301 5708 0.375987
2530 15149 0.251891
6137 1631 0.461331
1931 6635 0.655511
3139 3530 0.447725
5084 774 0.024919
2808 1639 0.607893
5052 9039 0.820322
4479 12313 0.262638
18028 19905 0.96194
1350 6273 0.270341
13167 2301 0.936673
14213 6115 0.35364
15636 6543 0.475124
12333 3755 0.304623
936 7312 0.345621
16619 1829 0.0770526
6166 16367 0.40588
9650 10316 0.865571
10344 19191 0.00737061
1832 2677 0.434086
381 16054 0.94444
12538 2001 0.734502
15373 8413 0.359986
8613 17472 0.571291
15357 7552 0.683582
19824 5699 0.905931
1194 4255 0.711895
17831 16627 0.00489067
2559 14940 0.886727
5807 852 0.610545
8311 4969 0.160232
19714 14115 0.867442
10417 6855 0.242906
5580 6359 0.0862181
11124 12795 0.309072
7292 10512 0.661338
3113 8151 0.479556
3381 12152 0.674175
2643 666 0.835908
19914 7058 0.518219
7092 6221 0.345946
3198 19373 0.792743
16837 4424 0.80013
7503 4514 0.259471
12684 4429 0.129651
1653 6947 0.160901
6368 14149 0.554197
5319 8475 0.690462
12492 786 0.455248
16389 9644 0.520774
17174 3865 0.12928
3410 7208 0.973398
7546 7595 0.986038
19443 7071 0.93441
9757 19186 0.18978
1964 19875 0.0323282
9771 2087 0.131689
11103 11790 0.402118
13871 2342 0.348277
16089 10291 0.448286
4339 12488 0.164734
13438 19093 0.253506
11711 11992 0.600919
4299 11513 0.40598
2827 4208 0.911436
17951 11186 0.699072
18721 11802 0.00764511
3016 1791 0.999893
12261 10767 0.366471
2567 2264 0.773997
5392 3214 0.146928
14296 9262 0.823816
2854 5202 0.0786973
2967 7503 0.797215
1536 7123 0.918353
3223 6627 0.08851
10433 12494 0.637105
3901 504 0.0518953
8912 2878 0.0971684
10562 2815 0.863402
19406 16527 0.502145
4034 8818 0.387524
4966 1310 0.340261
9710 15227 0.464989
12652 17602 0.343277
11256 8026 0.170811
14429 4420 0.0183786
14389 7695 0.558301
19460 6954 0.153738
12447 5577 0.839953
12219 4726 0.402074
4918 19710 0.989945
12042 7424 0.652569
3307 15414 0.634412
5536 15476 0.94813
8743 2642 0.00819768
12171 6644 0.470215
1832 13668 0.120666
15851 11200 0.668449
12433 5134 0.452317
2943 10842 0.599535
5622 9110 0.390825
16755 18460 0.252256
2165 15222 0.637977
378 5997 0.0559266
5083 1409 0.418119
1755 7024 0.958113
6879 19875 0.261086
12393 5541 0.0350849
5206 4142 0.454185
16420 4854 0.586836
18653 12604 0.61484
233 18044 0.884971
3354 4407 0.28632
13742 16736 0.253208
7193 2147 0.558986
8515 15087 0.499753
11674 15743 0.179554
5654 9763 0.398723
18925 2880 0.991344
9071 10244 0.159992
3986 1455 0.191521
5701 2734 0.263443
12356 17033 0.1596
17753 17395 0.11437
8648 11879 0.252177
630 8881 0.91445
1868 5095 0.48473
4862 10818 0.25526
1451 14500 0.47677
10199 12245 0.228897
13728 3309 0.671275
10628 8107 0.714857
9788 18158 0.461655
7971 7777 0.427726
4588 5483 0.452526
4038 11796 0.0620175
16905 18866 0.19673
13856 12649 0.851662
1335 1813 0.409221
12641 245 0.0753225
19134 156 0.454919
6885 9905 0.272133
12480 7496 0.642755
6410 10268 0.186498
9758 9275 0.998136
642 680 0.112455
3998 6302 0.0460448
682 6196 0.758746
10453 18384 0.54345
5863 1729 0.386849
371 7201 0.962056
17894 8519 0.0083624
14181 10990 0.803286
12546 9838 0.67726
6004 15466 0.669753
18345 15427 0.180456
6342 8454 0.0955883
4403 4502 0.731105
7984 6083 0.232028
10443 17090 0.151862
18345 4394 0.965874
5728 7083 0.905286
2896 13936 0.399747
5949 7607 0.90655
6581 7249 0.973915
6621 3530 0.843031
14877 13928 0.861352
3824 13069 0.213016
989 1421 0.403114
311 17152 0.486384
16886 856 0.180445
3879 15464 0.473875
15996 19886 0.0593239
16394 17361 0.719242
3535 13078 0.202386
9281 6664 0.168579
7339 7184 0.57004
15396 9230 0.815769
6797 5025 0.83745
13969 12398 0.725154
9610 3160 0.591684
18216 10260 0.176556
19501 8516 0.99195
3780 11605 0.478672
18226 15090 0.121314
58 11395 0.169441
19002 12838 0.718172
18122 11522 0.663964
1056 448 0.873147
19250 16698 0.376519
13215 11875 0.400268
12634 15693 0.396909
3862 1136 0.535502
5482 10955 0.263383
2519 6084 0.147075
18696 18092 0.319243
14170 8367 0.361038
8307 7940 0.299666
12759 3444 0.601995
11918 10455 0.934798
7216 6430 0.123619
11564 6733 0.995146
4584 4081 0.481333
5651 8325 0.122741
2568 8276 0.0432095
2177 2484 0.373893
12630 7114 0.0232958
2578 7733 0.720649
11592 3433 0.35643
7143 2442 0.616375
18666 6035 0.0460448
1116 12347 0.145629
2104 9332 0.409328
332 183 0.730915
5877 19130 0.743897
11390 8648 0.0376894
19594 2310 0.384129
4782 609 0.279857
12854 3198 0.86247
6019 10865 0.349304
3471 2205 0.62052
8739 710 0.567914
1032 11703 0.150757
17490 8835 0.275648
4283 7125 0.212516
17379 18527 0.772212
13038 10051 0.471561
5069 7426 0.669973
6683 697 0.937072
18880 8996 0.384461
5712 9909 0.124548
6193 5807 0.911845
12392 2788 0.706752
7971 1334 0.261446
16553 9577 0.939056
9876 12824 0.973493
18488 2617 0.930367
13892 10669 0.983415
14286 7883 0.518795
8738 11574 0.307713
16219 4354 0.886542
16881 185 0.205992
6162 18630 0.847768
929 15364 0.562739
7793 6138 0.439736
247 4584 0.917979
4947 4001 0.205821
2685 8908 0.833991
753 14253 0.305287
18435 12179 0.874197
5479 17121 0.904347
9604 3202 0.194978
19199 5088 0.112137
19891 398 0.934396
10318 15348 0.540626
8367 8658 0.685985
1947 18634 0.662333
14935 8350 0.165383
9606 9230 0.0680706
7893 19639 0.658967
4076 17621 0.00764511
3756 19496 0.311493
245 10512 0.747779
10862 4962 0.483321
7625 1786 0.324311
13151 1129 0.380164
3756 8250 0.0703127
13537 15290 0.0624188
18917 18400 0.47484
1742 18465 0.519715
260 6676 0.339575
3488 5934 0.214305
1048 39 0.121231
8673 2046 0.150664
17901 10459 0.46184
19152 6539 0.931358
3685 14321 0.517359
6393 5039 0.788507
9859 1830 0.0311439
3803 8814 0.89702
9664 4238 0.813221
7842 9330 0.947337
16461 10608 0.438299
10889 1939 0.255243
11616 426 0.00400831
9170 17348 0.276755
1092 4401 0.29223
3159 9040 0.408993
740 5962 0.352959
7105 7746 0.187119
6994 11367 0.881137
11791 14932 0.288163
19037 8489 0.17954
6337 14547 0.450753
210 7484 0.205526
8523 17487 0.835715
2496 5725 0.743509
13905 5076 0.167213
14354 4015 0.851535
18274 5312 0.0748952
11455 1792 0.529166
7519 17353 0.72369
1425 2079 0.423252
5965 18291 0.291139
310 3789 0.205623
6970 6173 0.965741
10442 16513 0.284759
4377 5209 0.479462
17654 2406 0.178968
6415 16035 0.276218
507 14095 0.000840601
10361 12677 0.535454
10567 11745 0.64374
2053 4485 0.837595
11277 6949 0.826857
8323 3688 0.896866
14437 425 0.0954853
8294 2012 0.799996
1709 1431 0.779325
7063 18100 0.539377
452 6052 0.221384
8243 9519 0.689694
19522 6176 0.188124
7806 1525 0.40298
5068 18359 0.839566
2624 8244 0.337064
12344 16302 0.347742
17340 5936 0.186418
18805 9864 0.140439
3766 17027 0.824969
14615 11933 0.292487
10220 10373 0.431645
11146 10092 0.7669
13695 5903 0.308086
13670 11844 0.846421
1202 4192 0.485758
15588 8901 0.356473
16673 19674 0.719105
5637 6775 0.504199
2877 9706 0.315676
13553 7557 0.868508
8924 7226 0.331058
8886 3317 0.821334
17284 11734 0.118199
620 11233 0.60965
9664 10949 0.93973
10379 9066 0.659013
6102 11848 0.958972
4151 8355 0.101714
18674 1045 0.0670467
7317 6893 0.622971
13717 4013 0.0781367
16487 16779 0.849608
3748 7991 0.338837
12638 11415 0.476359
332 10754 0.861364
5833 7111 0.573406
1986 6120 0.5844
4446 7642 0.705333
14435 10603 0.195871
4530 4761 0.373969
11407 1147 0.937768
10241 16749 0.251673
17879 6540 0.0138247
4653 15382 0.757456
1644 19876 0.597619
12835 9533 0.495378
12747 6380 0.213172
11190 11343 0.709112
7441 3141 0.0346826
5745 19062 0.182969
9646 8907 0.420485
14561 10490 0.0316266
929 17460 0.902828
5395 12571 0.022335
3160 17174 0.220196
15907 18701 0.191521
5048 15797 0.55177
10923 13564 0.52182
7641 671 0.206197
9858 13466 0.776935
100 11169 0.587548
16236 14024 0.387028
7583 3184 0.873266
7597 19186 0.103664
12869 4589 0.971718
3978 3465 0.280331
9225 6266 0.946314
1083 13878 0.515894
10254 11966 0.198012
144 6178 0.186846
1805 16952 0.0766309
142 2566 0.485055
16038 11235 0.848276
763 8050 0.288463
7040 8004 0.55822
3396 11807 0.776469
7857 1720 0.0363497
10517 11694 0.589825
2528 1502 0.323553
17912 3839 0.283324
6322 38 0.601788
9486 1632 0.662725
6435 16314 0.694394
16626 14979 0.369393
3648 1274 0.343296
16394 12122 0.0363423
1768 9281 0.866702
19290 7336 0.140849
10673 6285 0.470318
363 7374 0.915825
9861 11881 0.434042
5843 938 0.510251
1776 12183 0.315879
7536 2408 0.555629
11029 7689 0.112147
1697 18384 0.879699
5350 7711 0.867757
1477 15101 0.705872
15690 4019 0.730451
9715 10379 0.156379
3630 12104 0.959128
13301 3926 0.893954
6155 9569 0.735478
7104 10745 0.99273
5388 4029 0.25606
948 14232 0.0142865
17682 9481 0.749185
576 10836 0.595131
19832 7253 0.655408
2184 10587 0.140315
12359 4908 0.760534
8494 2063 0.998751
1102 4300 0.304843
18159 590 0.808143
6780 6917 0.790359
11600 22 0.24373
9667 14429 0.439953
15462 18386 0.774909
14081 900 0.635857
19238 10089 0.24515
6465 8867 0.200928
11529 15003 0.117534
3504 3761 0.0786212
10969 1256 0.913096
11083 2341 0.47347
8902 11593 0.891912
7061 14366 0.889422
6326 3315 0.855282
9340 15601 0.447696
1310 3048 0.794476
942 12865 0.799114
1015 5955 0.90581
18386 13415 0.550864
18198 1169 0.42638
1370 4376 0.431902
7936 7340 0.762684
4098 1413 0.284792
1365 12245 0.941727
756 4987 0.87308
10559 3133 0.406907
8260 9874 0.987391
14874 7723 0.0224146
6195 16104 0.266407
125 1855 0.76521
9510 12436 0.435702
15909 9507 0.268352
7158 538 0.299455
3886 11878 0.000958344
12110 10623 0.344389
17237 12243 0.249825
4193 6061 0.94593
388 10113 0.79973
11277 10501 0.974661
2031 9694 0.775437
12578 17046 0.157502
7180 3927 0.461949
4795 7667 0.809262
18594 6008 0.316607
8342 911 0.111378
10869 7316 0.50668
1226 7187 0.56959
10193 6685 0.653828
4506 9168 0.0381273
19096 7605 0.340006
5378 13611 0.238758
14151 3300 0.540022
12333 18301 0.798816
8438 7418 0.635765
2059 2605 0.599408
8196 12600 0.884092
944 11874 0.286837
7077 2165 0.848001
11230 7893 0.0498918
18982 4560 0.363134
19781 2224 0.762711
10298 2366 0.908041
1130 17853 0.509392
5134 6843 0.574226
676 17658 0.225131
11354 9524 0.0982714
10558 142 0.324223
12666 3600 0.6567
8245 7265 0.749164
11994 1195 0.570009
1840 11843 0.15814
11353 5593 0.512302
8471 9849 0.454157
6111 15164 0.583643
18724 9622 0.315862
10608 6734 0.880971
4502 9109 0.422382
7927 5218 0.378521
305 6532 0.781418
3201 5567 0.133032
12966 5299 0.149872
10246 7062 0.973395
9877 8394 0.833691
16365 4191 0.261527
9572 5767 0.860278
6455 5281 0.161911
831 17732 0.697459
9991 15085 0.887484
11415 1282 0.369897
1715 18624 0.198589
7026 15642 0.715246
3921 2549 0.744665
9589 3261 0.511113
511 2779 0.604893
5469 7199 0.508406
19400 4944 0.93744
735 11687 0.203846
19709 4166 0.682174
11482 16557 0.365712
11765 17610 0.591071
4379 11908 0.765727
6107 3854 0.40133
5355 2042 0.666068
15625 3187 0.868602
13932 10529 0.762902
13432 8159 0.330664
1550 11656 0.68079
11652 18360 0.105308
3509 6287 0.866568
1588 18739 0.330206
17175 11445 0.749319
5971 12441 0.29601
5776 799 0.322813
3368 18756 0.789323
2489 16761 0.549944
19141 543 0.810217
4248 782 0.555339
2720 11959 0.127826
5991 7221 0.871092
105 5565 0.00716794
19264 4956 0.615161
9530 6500 0.109101
2881 19419 0.490495
12253 9231 0.423682
238 6022 0.154049
17519 18794 0.0993836
18749 16591 0.904133
15356 7165 0.968563
279 10775 0.505182
1109 6159 0.276778
12571 2795 0.553256
3836 5826 0.717511
12314 4545 0.127615
8164 5629 0.401403
9558 16322 0.959597
13480 6190 0.362259
6651 18576 0.250543
3455 11238 0.102069
7398 401 0.295026
1503 6940 0.403814
16724 377 0.267269
13209 4962 0.81201
15120 8551 0.470595
9282 3259 0.248223
16923 4963 0.301429
17499 4666 0.0138309
12366 342 0.666804
13101 12756 0.898692
7059 10598 0.924495
5644 11546 0.07629
12705 14966 0.189559
6501 18204 0.910041
11964 13182 0.19091
7781 7843 0.856737
12609 14760 0.822362
4261 17446 0.462472
13331 3520 0.265535
11367 6158 0.993475
407 12010 0.302539
12612 18328 0.407382
1701 6626 0.639076
49 5334 0.416493
6485 19777 0.304995
4653 5015 0.0178234
16140 10276 0.417155
7751 5392 0.281067
3098 12629 0.926145
2145 13189 0.6654
554 17983 0.592803
6776 1784 0.0833086
4862 9061 0.00558726
4490 1142 0.676259
990 7937 0.559089
3624 4618 0.0921529
4357 3214 0.048474
12889 6145 0.0484153
6628 15164 0.129771
8254 7794 0.421355
234 8348 0.38039
5163 13491 0.683797
13758 12533 0.0511086
8982 12693 0.989945
1144 2357 0.156137
2226 8224 0.753853
18264 8662 0.919951
6965 10511 0.840802
7373 19523 0.666191
2324 8531 0.962859
18646 5941 0.544193
6468 7029 0.565463
10833 2917 0.49152
8982 9228 0.732049
6053 7771 0.286225
11708 8476 0.473619
17460 8573 0.0973159
4647 10262 0.360025
18848 2287 0.666323
4322 5832 0.238766
1382 7974 0.482655
2065 11930 0.165454
4836 14889 0.354807
8283 18124 0.495416
9994 1632 0.802568
7250 16775 0.820058
2732 4441 0.0698499
4894 19014 0.518525
1296 1878 0.104183
10947 80 0.556203
6846 16813 0.955163
9127 17345 0.144496
9355 6379 0.696168
872 10416 0.0327977
10620 9637 0.946044
8961 13624 0.812881
19509 6112 0.161026
12485 4758 0.792258
19107 12234 0.871092
5127 2911 0.379246
7469 510 0.41405
6326 8091 0.600798
6093 9345 0.95774
1233 5708 0.802021
17199 2919 0.443727
10306 406 0.579412
2345 8611 0.729057
306 4193 0.561313
6677 11326 0.359198
7307 12545 0.587335
11349 7570 0.871033
6428 6523 0.134735
8359 16259 0.102047
5394 15086 0.500017
7854 11575 0.679448
3574 16399 0.9788
4165 12118 0.784229
11041 12276 0.0855591
8558 7815 0.494857
16142 6346 0.363897
8723 10701 0.850805
17573 15170 0.300637
12094 14039 0.649728
10412 12837 0.844101
7511 10581 0.82782
11496 14652 0.800669
9093 818 0.0769337
7466 19247 0.0832859
4528 2641 0.871343
11208 4700 0.599501
10295 14892 0.563151
12597 12816 0.0910756
13845 795 0.424453
7625 4405 0.723948
17914 8458 0.549436
9923 14230 0.7388
16918 6468 0.694463
19637 12484 0.620451
5173 1384 0.499785
6047 1504 0.509928
1461 10317 0.612932
7151 9654 0.384992
12465 2593 0.754797
7587 6858 0.220799
11492 8284 0.448326
7340 3629 0.86495
10942 5279 0.354559
13759 8771 0.761961
3727 12181 0.00488882
6535 5818 0.302837
7463 6071 0.311921
8584 504 0.0775835
10754 10794 0.372131
9645 3287 0.739356
10319 12280 0.181161
5549 15453 0.301682
9263 1910 0.39552
14910 13850 0.560072
490 16586 0.769271
8980 3183 0.569811
3597 8039 0.638504
12555 14840 0.0573735
19753 7877 0.701508
7283 18127 0.407788
18293 19458 0.0850227
8403 6420 0.716993
3756 8745 0.567595
13520 17711 0.91097
7560 10980 0.228534
15522 13326 0.812906
9350 10313 0.0695872
12717 3711 0.999097
819 6738 0.895844
768 9727 0.306617
13021 10114 0.542958
14735 18847 0.393428
6057 19741 0.605938
11573 2557 0.183806
19140 135 0.994807
7402 15189 0.511579
408 13897 0.974202
7810 3744 0.262629
10052 3947 0.0608734
19550 14198 0.308526
5727 908 0.88481
9770 7295 0.686993
16459 5452 0.536588
13140 4023 0.989945
11897 8661 0.617794
18785 10246 0.128748
6332 11125 0.391806
2302 18255 0.251948
2654 13156 0.639313
1262 6049 0.395954
17427 9956 0.194729
8019 7029 0.603487
848 1961 0.922875
1563 3758 0.677239
16078 10763 0.240292
13981 2856 0.00386979
5412 6142 0.902465
936 12943 0.338957
14167 3552 0.7656
5019 16398 0.358978
15227 4847 0.115695
10307 2034 0.930255
19124 628 0.0323282
7016 6198 0.178281
10997 1582 0.775383
14892 4551 0.806507
12989 12560 0.725468
4887 2485 0.988012
7195 5533 0.549304
6362 6145 0.192225
10623 10803 0.888167
6916 5380 0.184427
18599 17922 0.42178
13497 1905 0.484228
13204 15968 0.28516
2654 12697 0.0500616
14776 6794 0.908878
6761 3019 0.485753
17985 2945 0.712226
8268 661 0.346043
4364 2339 0.652569
16829 11683 0.34646
7594 6549 0.960561
4867 19127 0.576892
18815 6525 0.764077
5446 19638 0.633905
3390 2091 0.0211846
15753 3130 0.681821
15253 7056 0.953822
3194 6171 0.96678
3762 11841 0.386642
17474 19519 0.745599
9251 5276 0.279954
13214 16994 0.939992
8280 11748 0.592944
873 4921 0.779244
7633 2842 0.601403
19462 8633 0.652319
4781 2525 0.976433
8474 14404 0.156086
4511 786 0.509852
15606 10479 0.489489
1662 15383 0.819574
5769 4169 0.024307
19761 1555 0.803459
2984 19608 0.364722
2499 6455 0.292142
4022 1896 0.667865
2615 16362 0.269408
10478 15322 0.843892
8028 70 0.067117
9698 19561 0.0390257
12333 4854 0.591157
2051 8479 0.666191
6519 18407 0.135132
2790 7432 0.374551
8730 4516 0.104234
9136 1395 0.019422
10267 8555 0.124322
8416 4033 0.270208
4152 18349 0.916107
15695 11241 0.254759
8913 3366 0.260389
11471 12211 0.0428435
10376 4846 0.800075
16614 15575 0.9002
17979 10245 0.000909628
5669 9873 0.317309
3040 1140 0.493491
5607 2658 0.564991
2293 6060 0.421067
13645 5477 0.560403
11563 16279 0.0862484
16879 5187 0.994182
7298 1063 0.814623
12531 10118 0.237296
11066 4615 0.745356
757 11806 0.822148
3983 5957 0.161944
556 10762 0.584645
2637 5485 0.341348
1757 14080 0.773081
10435 9509 0.34951
12832 19839 0.508317
2087 17817 0.226866
12005 1609 0.025268
7372 8905 0.979677
7459 1836 0.86948
2993 1029 0.221332
11893 9343 0.689805
8458 4654 0.846322
12453 19823 0.0731834
7551 9373 0.497182
15560 520 0.373873
5121 1307 0.972271
12803 19816 0.761322
9671 1153 0.145184
348 364 0.211284
12736 15317 0.810137
1640 2496 0.0127313
12081 19170 0.739906
11973 6503 0.643025
11249 10184 0.384252
16906 10008 0.0283885
7111 3375 0.679372
7104 2488 0.440578
14316 5414 0.424806
8080 17232 0.598666
12045 4084 0.556121
1197 2038 0.407154
3346 11987 0.613989
11980 7364 0.996619
11883 193 0.586271
2988 2611 0.873784
6495 14673 0.215502
813 2782 0.762122
8068 10073 0.703067
16117 16509 0.153923
11467 3679 0.208139
6711 8764 0.0466509
9821 5199 0.132987
12563 9367 0.866399
4088 7866 0.0265634
5871 9562 0.913969
7463 1535 0.386228
7600 8457 0.732725
3746 11562 0.619103
11281 11953 0.625389
5445 19343 0.698251
10532 2846 0.719066
14950 10908 0.127314
10917 5994 0.453
9447 7074 0.885157
3556 7901 0.291148
13586 11920 0.129754
4491 776 0.700992
1379 7878 0.567051
9689 8777 0.119382
1299 13015 0.628378
19569 1685 0.888111
11655 12713 0.785593
8190 3728 0.426139
13884 7343 0.225773
2786 10717 0.110743
5732 9872 0.216346
1266 10041 0.323659
9088 4754 0.667698
11650 18098 0.800039
2861 144 0.735541
6709 6723 0.530741
2142 7796 0.231122
6247 13077 0.404253
13263 15881 0.599996
15778 12800 0.387766
11829 10153 0.248629
7779 10868 0.966508
8261 168 0.0588548
4490 8483 0.846472
9547 19137 0.525732
14250 3446 0.865643
6083 4702 0.489191
6152 18390 0.230988
8038 6911 0.417043
2537 8479 0.806872
6713 16956 0.546885
19906 9137 0.0938061
2401 7730 0.0185216
2103 7702 0.54504
14562 9257 0.782356
5879 15188 0.708555
6389 9900 0.740869
8600 3538 0.494495
5193 14542 0.0102808
5771 446 0.701037
1797 11624 0.976429
3818 5982 0.635454
5633 3586 0.237717
10919 17954 0.233815
6538 6186 0.411863
6495 8235 0.622122
5665 17696 0.849481
15070 15244 0.132419
11106 2632 0.235784
10016 11436 0.665494
13074 11006 0.0975432
7667 619 0.75013
6565 12825 0.14714
9662 1630 0.832106
12853 8297 0.420217
18735 2404 0.772095
11246 13776 0.484629
4906 12387 0.165729
10394 2226 0.749427
16948 7553 0.582702
9775 12001 0.266355
17870 19319 0.512499
1443 12758 0.137374
19575 4011 0.28393
6727 15057 0.659936
1897 6386 0.726063
12482 11685 0.807179
14862 2790 0.0888921
2010 9965 0.628435
13120 4478 0.571568
11413 7824 0.93634
11633 16936 0.779252
12241 10326 0.0684054
9720 9899 0.186647
1533 7052 0.685629
10025 4355 0.215404
10603 13245 0.559466
14263 17900 0.694092
4455 9171 0.479565
6951 11380 0.309827
4828 3057 0.300395
10110 1352 0.0434887
2581 4958 0.335027
10972 6534 0.005492
4173 13528 0.407829
19250 700 0.124454
10274 3102 0.278281
4867 12360 0.00720288
13562 8519 0.0609241
6846 3713 0.579522
7161 3701 0.218849
3339 14034 0.812754
12747 7912 0.755902
9320 15764 0.432555
17530 2397 0.812881
18695 743 0.958951
9578 11623 0.14204
9359 10883 0.488618
10059 13782 0.259577
9022 4773 0.523861
5581 636 0.0684007
9882 5888 0.765285
5377 8096 0.698708
7205 7070 0.340974
1372 7381 0.467642
1921 7234 0.501379
7601 11646 0.541873
8812 552 0.81667
15492 6810 0.792212
8017 6227 0.357708
8263 8775 0.845044
10068 6865 0.928203
2262 3900 0.182943
14226 3125 0.132694
3734 3553 0.948521
13473 8270 0.483697
6382 14625 0.702911
13559 17862 0.0880769
17224 2440 0.74392
19728 861 0.711393
4342 11908 0.879337
7422 12147 0.91657
11361 2435 0.947788
4926 3301 0.599105
15566 11928 0.803421
5195 627 0.660301
4633 18349 0.790003
17080 17057 0.609035
1702 11176 0.885347
11753 6232 0.561484
14801 12291 0.0446239
2169 2490 0.393959
7435 6550 0.722517
1567 1961 0.739356
9246 15573 0.268481
10828 1847 0.082069
9219 8740 0.750088
2140 3714 0.505182
154 3420 0.95022
16667 563 0.522898
559 16472 0.021187
19 4599 0.32385
9191 4751 0.0328138
6024 5021 0.208727
14283 9932 0.480168
4616 15003 0.756939
9004 11051 0.0695115
5506 5451 0.305479
4258 10095 0.628599
9325 8342 0.702003
5061 3974 0.482144
17879 5042 0.763043
7190 12071 0.684959
2450 3368 0.986516
14781 16493 0.646755
4594 13907 0.70737
6224 10175 0.10471
10356 1233 0.642837
7852 10234 0.849948
10339 2892 0.386406
15704 5865 0.370349
6986 12678 0.215723
3764 5606 0.711715
13660 2074 0.0749866
2755 13231 0.812754
7332 639 0.288163
2252 7536 0.59496
7682 1067 0.0362774
1987 11348 0.069306
5787 3243 0.506408
9890 5513 0.507095
9445 4687 0.797634
5099 17239 0.804358
1354 7550 0.180919
18453 3834 0.024261
3174 9578 0.379931
11262 10732 0.833379
16123 17194 0.82396
8963 10884 0.0466745
15942 5209 0.477805
6016 136 0.103693
4026 8656 0.723285
3442 19146 0.448954
11593 8771 0.289826
5750 13783 0.807498
8813 5292 0.300061
5340 3813 0.79711
9924 7255 0.602219
10767 8266 0.175332
11956 4158 0.15667
4542 1474 0.824073
14143 7111 0.0212003
8134 5358 0.203291
14885 19903 0.265839
11049 2705 0.312143
17459 1970 0.257799
14365 4345 0.344167
3273 9876 0.173496
19324 17387 0.115994
10234 299 0.158825
17204 11013 0.0133212
4060 19321 0.000591817
4084 2503 0.665478
3739 11674 0.0143347
526 3238 0.796609
3155 4068 0.965056
13851 6509 0.739555
2985 13393 0.242116
16346 5977 0.0850227
12050 5482 0.32748
3734 16348 0.318328
11869 6786 0.247084
11385 13683 0.0614924
9093 4540 0.416467
19105 5773 0.263104
7229 2162 0.865682
8819 13704 0.209116
10488 3744 0.273848
10597 12772 0.993216
2069 5322 0.303761
17005 10023 0.580887
859 10054 0.642013
367 5858 0.875516
15204 11022 0.999161
11734 689 0.562844
3653 5231 0.157795
1913 5203 0.230544
2052 8886 0.759889
6388 18696 0.767538
8078 4747 0.0163935
12410 16171 0.38557
11717 15436 0.691643
3504 1778 0.899102
5014 10879 0.723123
6786 5977 0.0713475
1975 5509 0.949473
18174 14395 0.274213
6976 2947 0.314556
913 352 0.109622
2736 9324 0.399538
15319 12925 0.757346
3646 7488 0.775383
1957 12452 0.778766
4313 15706 0.635454
19226 10989 0.0811598
3680 1950 0.734762
12115 3935 0.976447
11310 8269 0.971791
18218 6997 0.824729
9147 11929 0.276817
551 3515 0.176233
4313 5044 0.203371
823 4579 0.277459
18114 3715 0.556943
19319 6107 0.466112
13290 15375 0.605464
5501 4923 0.973603
11443 1913 0.0869543
2288 136 0.411391
2002 5818 0.774909
4526 18232 0.733207
14279 417 0.844698
7 909 0.444725
19217 13777 0.465375
9900 6764 0.797722
9746 798 0.846427
16674 5670 0.0617672
8711 7058 0.228285
9624 11608 0.855792
5606 9733 0.798698
2891 360 0.45271
380 806 0.525469
4776 12418 0.170088
4335 17274 0.0327533
11117 8530 0.852622
5656 8722 0.120936
5080 4600 0.726618
17660 10487 0.00025694
9047 2236 0.704146
3427 9935 0.275317
1750 4306 0.837501
6679 1505 0.957807
3150 8822 0.0257119
5711 4125 0.322698
19514 11511 0.462841
10419 2252 0.670997
1315 1110 0.915935
13432 13241 0.251673
15517 10867 0.85384
8964 10849 0.510269
14426 4340 0.0527278
5868 8444 0.698269
8780 6678 0.894706
11977 14775 0.96684
10694 4502 0.196887
10209 13464 0.137739
926 1404 0.0182365
8638 11927 0.535488
6606 11894 0.514338
15514 10183 0.299183
8094 12810 0.470244
12098 1817 0.31861
5661 16378 0.931711
17419 16115 0.0799981
4237 8631 0.963069
10480 17145 0.0681066
18032 18438 0.544723
6752 12785 0.508857
4699 6230 0.141828
15551 451 0.620695
16297 2152 0.381028
5233 11942 0.939593
6058 2921 0.0213401
13617 61 0.327692
15714 1706 0.853435
2911 11893 0.85332
1441 6038 0.289042
2126 19788 0.333257
14682 14452 0.875516
10178 196 0.732522
15272 2439 0.360781
6238 121 0.570157
2279 809 0.247669
10885 11749 0.339799
16236 6044 0.912346
9207 14424 0.555195
2649 14793 0.486359
14671 7055 0.651328
8456 2847 0.765294
6782 10189 0.572993
3842 14130 0.666373
12689 7174 0.169777
3665 9912 0.727956
8982 11973 0.251137
1104 2991 0.517325
9492 15284 0.420737
1737 5564 0.804292
1012 6955 0.327429
19440 2693 0.0104419
14593 3 0.604557
2211 1756 0.677486
14555 9381 0.265534
17736 4984 0.801288
9031 9671 0.187476
14538 8403 0.707547
9614 1185 0.431736
6282 14279 0.761961
1442 701 0.288682
16149 7247 0.686514
4578 1207 0.722355
7262 6132 0.245411
12107 1624 0.840268
4814 8776 0.591335
8074 12290 0.855418
18344 10421 0.229613
1682 285 0.474039
18100 18773 0.781474
385 18689 0.613464
16200 5471 0.549526
10471 12395 0.985346
18214 7492 0.540745
10473 1731 0.826857
6253 17678 0.0253536
8441 2159 0.578587
14203 18754 0.66055
10280 1406 0.0256863
3409 13691 0.1416
4048 1597 0.657155
4931 787 0.0309082
2820 19651 0.87099
10620 3846 0.642517
5238 16631 0.598865
9961 12221 0.91657
1754 19299 0.255851
829 6070 0.408867
8406 11453 0.209517
4269 5924 0.495188
13814 5986 0.224753
8518 4040 0.301934
1808 3600 0.704061
14582 499 0.529834
2521 11570 0.862626
1883 10514 0.898669
9382 5119 0.658546
11430 11695 0.441176
19746 3333 0.878644
2902 5684 0.764151
71 6346 0.941727
12154 10054 0.207913
10429 15228 0.845935
15984 7092 0.540067
11297 12547 0.896897
16449 18516 0.565453
6412 132 0.581414
15193 11890 0.229974
15847 2988 0.328895
3442 16783 0.385256
11948 3940 0.102166
5674 16492 0.701763
5526 2689 0.677702
3390 2598 0.773323
1393 750 0.028151
1196 11401 0.731637
14018 4644 0.733923
2994 2444 0.779181
16401 13933 0.857025
11922 1904 0.404933
17383 5448 0.628356
9677 16411 0.681478
13470 2794 0.942728
7506 3753 0.110484
10805 7065 0.0593967
2839 9461 0.0895895
19157 4597 0.962387
5730 6695 0.132378
5506 5608 0.0663915
16531 8183 0.623804
16585 12244 0.855469
6741 219 0.748173
12077 7925 0.672001
3960 14713 0.235009
19883 10338 0.845627
2229 10773 0.440875
12325 16716 0.755111
17268 3846 0.759582
11704 12255 0.518929
10083 10933 0.923467
19777 799 0.167995
443 8381 0.532997
3574 13791 0.0769015
8397 3541 0.740105
13319 6863 0.210867
7448 11733 0.811449
4890 2291 0.859284
3772 3820 0.145911
18100 3410 0.355657
11354 1960 0.883844
11384 4305 0.827246
10506 19737 0.641496
3564 6465 0.364735
3677 5043 0.530897
12079 7337 0.391219
11664 10357 0.484915
10888 458 0.810846
3768 19048 0.34684
2234 12169 0.275144
1658 10991 0.765789
12214 18598 0.433371
3134 13660 0.0341206
14523 6272 0.0175511
12680 605 0.408219
7113 12973 0.304419
8500 2463 0.240193
14375 10251 0.804823
9967 9715 0.898733
6830 16424 0.519156
9927 19837 0.382616
2505 7557 0.170686
9457 2846 0.416891
7348 8972 0.778648
7248 11311 0.586836
17559 4284 0.558006
15966 862 0.223371
11637 2547 0.385662
4126 3400 0.424453
4987 6751 0.59746
9196 8803 0.480793
13627 12884 0.0684007
17074 433 0.228919
959 4308 0.00701534
6273 1885 0.610506
5772 15764 0.333299
17669 12014 0.627712
3559 7255 0.320389
1708 1002 0.0881929
5684 9070 0.468833
3145 791 0.586848
4373 9165 0.898733
18138 12053 0.773081
9103 9083 0.407926
10378 978 0.0294199
1021 1790 0.85648
10462 2176 0.112405
9305 16952 0.134308
7997 11156 0.497544
3732 1681 0.255396
10947 8295 0.322914
924 9876 0.668607
16440 12557 0.294445
8639 3685 0.890368
11429 3064 0.142905
18888 3570 0.0173515
296 1322 0.140293
3050 18719 0.596474
10415 7593 0.252657
4897 1847 0.795502
10958 19971 0.526486
1383 18587 0.634962
205 11892 0.0797768
18300 7469 0.189776
1282 19792 0.397757
18071 17595 0.153813
6117 13952 0.133734
12401 17870 0.649071
16770 9678 0.873673
5283 2864 0.38339
11486 10259 0.226352
4311 12951 0.664045
644 1763 0.812142
6203 13631 0.236269
7799 11319 0.203497
13071 3967 0.739152
18661 13870 0.902828
10498 6525 0.645808
8550 15704 0.481793
3244 9393 0.95955
3293 10514 0.00209246
9500 1429 0.618378
8759 2840 0.453514
12588 1704 0.184482
7819 7987 0.449758
5039 9736 0.0796511
1451 17192 0.0937114
6541 3653 0.914356
19366 5707 0.407058
2357 2670 0.102166
13504 3101 0.789847
2953 7171 0.71758
11444 16756 0.26173
7010 17673 0.0268828
13886 9505 0.535916
1898 13261 0.968133
5161 10816 0.884783
5100 11829 0.658236
12033 1073 0.42289
8741 2270 0.930967
9346 13722 0.308722
2113 16518 0.299619
11485 2588 0.21944
10642 4731 0.977558
19165 4390 0.810064
2020 11970 0.359683
17475 7712 0.535781
1462 10408 0.164308
658 5609 0.704203
3301 6804 0.0409275
3368 3972 0.409489
9551 411 0.539097
6 1540 0.385863
10537 6780 0.617058
7316 16568 0.0476607
11685 16252 0.494836
9274 11241 0.23587
3445 2108 0.299888
10924 1132 0.145852
1418 16388 0.0926698
13819 3653 0.522559
19356 5911 0.0720146
4644 10008 0.65084
8181 9106 0.484518
8590 6659 0.864394
6962 1449 0.0420754
7468 18590 0.82644
3492 4228 0.844444
11636 12824 0.938389
8266 8084 0.900416
16614 14701 0.155046
13088 11632 0.0209962
5320 5352 0.169229
3238 4700 0.44746
9143 3536 0.937887
18720 19444 0.402663
5062 2235 0.972858
18536 11567 0.0197581
7084 18099 0.804529
12604 4095 0.0648018
1329 10607 0.488765
16485 3531 0.0502725
851 15390 0.713068
8679 15328 0.477913
3770 610 0.250128
4067 10312 0.856276
8025 8269 0.292534
7117 15048 0.740179
3198 6745 0.872271
19121 2600 0.336315
1546 12701 0.124983
2156 5497 0.0348129
17835 10887 0.387256
1995 1702 0.0595899
5432 5318 0.551207
13253 2751 0.433392
11740 16628 0.319459
409 8855 0.777648
6056 2015 0.261684
14800 12055 0.751556
1574 14800 0.167528
12637 933 0.67629
2143 4319 0.379735
670 3367 0.716307
10247 1421 0.56605
3460 2149 0.433427
19434 5923 0.742183
11696 2352 0.585581
4883 12672 0.972295
19034 444 0.407595
4256 10248 0.986489
10389 3406 0.0800363
9494 13366 0.712342
16815 13699 0.288525
5512 9792 0.46135
4137 8536 0.861926
11058 10348 0.454704
944 2684 0.0142144
7264 3948 0.440843
5619 8961 0.658437
12639 16065 0.555245
1695 5390 0.349005
10453 5554 0.810415
3659 10354 0.0895486
19354 236 0.0398839
12045 8013 0.499288
11141 14059 0.333297
12522 12403 0.929052
11475 11583 0.0879614
12561 982 0.558778
8385 8323 0.522748
6647 4365 0.720773
7758 13357 0.977559
6568 5708 0.40444
18208 5378 0.0782182
19629 11656 0.30458
12438 19717 0.517671
10859 4418 0.34208
4204 7660 0.730696
5221 6835 0.789546
8545 4391 0.794076
11595 14763 0.0703223
5036 4830 0.336253
12174 7118 0.220768
12355 1860 0.974082
12329 1518 0.0380329
13407 11049 0.430718
7883 17709 0.14658
5407 7506 0.51733
11581 12916 0.832187
18982 9805 0.454104
2431 4632 0.453659
8890 8773 0.590208
2808 17632 0.412153
11111 3858 0.746404
4222 9129 0.715754
13009 11912 0.632494
6027 12160 0.504407
5278 7346 0.47876
1421 3506 0.424401
179 3711 0.922932
8697 10504 0.334621
10223 3302 0.880062
10805 6974 0.859144
4183 17617 0.0733699
7739 18112 0.210942
211 647 0.29492
6651 1703 0.439168
6841 11125 0.801664
2440 3561 0.646148
8295 17407 0.0124566
8703 1021 0.279954
12210 18666 0.401004
4382 8946 0.383345
16401 2100 0.686632
6891 14042 0.54341
13546 9369 0.005492
16989 8254 0.829026
19432 11439 0.131503
16346 10770 0.442617
2251 15550 0.724919
17689 18641 0.960319
7134 10083 0.837528
12131 542 0.939203
2202 12068 0.484698
6592 15656 0.804413
5448 7646 0.892835
3328 11697 0.947454
17945 1033 0.583939
6122 8058 0.0447404
5861 11296 0.42664
1814 16731 0.26461
1264 18566 0.281894
4483 8610 0.126691
7906 12762 0.206604
1568 12881 0.277475
5078 18602 0.757639
9401 640 0.152471
10896 19103 0.34374
7667 1278 0.49085
8273 9734 0.640465
842 8571 0.865653
3845 5173 0.890878
8325 8348 0.81913
3745 680 0.730908
1631 11423 0.221309
5489 15215 0.339477
7745 2766 0.125126
2708 11627 0.0232506
10810 17319 0.781001
1635 1943 0.374536
6843 5274 0.208914
13509 6518 0.5392
7864 10264 0.803473
14442 16105 0.345999
9913 6543 0.0765053
1479 1132 0.507417
11534 583 0.445918
10592 6713 0.369393
9024 13329 0.790399
17295 18100 0.389725
13799 3095 0.446433
7836 16922 0.757896
107 12687 0.948319
16752 9692 0.54928
6747 531 0.624964
1186 6594 0.222288
4445 2838 0.630937
4064 12074 0.147853
11420 19991 0.103321
10255 709 0.00998158
8176 15728 0.335411
8447 13246 0.291925
5265 12643 0.780866
7809 17113 0.574976
12906 15644 0.924152
10300 10523 0.415469
14584 1381 0.357623
17850 6704 0.873168
17288 10105 0.442664
6173 702 0.744534
7370 8712 0.311384
15124 5576 0.146329
8815 7857 0.798386
10241 1808 0.314661
17456 14461 0.350658
1007 19087 0.309099
1910 6332 0.900803
7940 5400 0.591335
8369 1668 0.60225
3322 12546 0.35364
4340 9048 0.00767738
6381 601 0.886682
222 4800 0.72851
10678 728 0.189874
12486 9743 0.436596
1892 2311 0.171171
9387 13203 0.0706744
772 2373 0.716148
3790 1791 0.268481
4922 7132 0.729742
5500 5487 0.134987
11479 16531 0.324311
12176 5075 0.549615
8892 404 0.845483
6705 9695 0.499618
19182 259 0.342797
1840 11820 0.367538
9579 14190 0.831128
11664 18356 0.93926
4491 12120 0.345872
16718 6385 0.703396
178 14784 0.491717
11069 19476 0.778648
7672 3881 0.539809
17556 13753 0.303688
1255 6632 0.988012
19019 7539 0.359711
5695 11934 0.510579
11582 960 0.909947
1516 4160 0.788927
378 19478 0.276746
6338 18795 0.792545
10633 3191 0.531002
5750 13803 0.631833
5951 19986 0.595835
8015 11406 0.223811
14088 12275 0.275773
8131 6761 0.546056
4598 13678 0.664046
9905 4344 0.449171
6468 16185 0.821697
455 15264 0.0692614
2297 9196 0.0770426
2432 15776 0.533078
15553 5841 0.265938
8616 14297 0.318617
8329 8812 0.687992
9598 6560 0.878951
587 7355 0.939296
16412 10890 0.280512
17413 15603 0.96171
12563 2527 0.239975
7776 8179 0.00204873
7967 15476 0.12928
2947 10703 0.809913
2648 10490 0.480438
16919 10786 0.476417
9025 12741 0.175887
9197 3186 0.778758
10895 17067 0.8486
11625 18306 0.814623
9121 11107 0.962102
2949 15910 0.87488
14031 17971 0.647227
19085 12103 0.984291
5945 11455 0.163089
14699 530 0.926749
19072 6911 0.00224117
18789 7175 0.648483
8202 2712 0.467079
4312 2500 0.304751
5468 14980 0.66023
15424 8438 0.8419
11931 8075 0.0759266
4611 1291 0.499731
4417 269 0.398544
1195 5542 0.149722
7468 17275 0.223224
10889 6230 0.172882
16215 18833 0.655354
13745 4909 0.373868
5738 679 0.548883
2760 15982 0.333081
14375 5463 0.18107
3408 4755 0.116247
6897 4147 0.758714
10975 9254 0.332665
9258 12356 0.200301
18751 3377 0.0935544
10844 4941 0.41151
12132 7093 0.172811
1089 5289 0.517326
4973 1499 0.0684054
686 138 0.293566
2601 9813 0.759889
16816 8853 0.354256
4283 9311 0.82592
4538 2453 0.243135
9590 10594 0.0172859
5948 4394 0.18724
949 626 0.937502
1414 3900 0.245409
11647 2893 0.227638
7721 177 0.169307
7469 11486 0.564494
656 13927 0.816718
1656 13237 0.0913718
8576 5710 0.168375
4661 9830 0.227575
844 934 0.607643
13643 18110 0.748251
11198 5398 0.0880769
2503 4953 0.350557
17956 1106 0.729188
13499 5554 0.646917
5194 14518 0.8071
13098 10983 0.0326317
1476 5020 0.666088
19873 5956 0.407788
10805 12612 0.898979
12358 3254 0.520807
12218 432 0.215011
10836 5879 0.296572
12262 7283 0.457214
11686 19402 0.260389
9809 8915 0.205169
4865 9757 0.177069
19668 2565 0.226352
11896 137 0.0942876
17363 5338 0.539086
7180 16824 0.766935
2482 12407 0.0628033
5997 8923 0.546225
18721 2625 0.813893
16204 1323 0.39902
12889 4438 0.126762
18193 13046 0.86011
589 7101 0.279942
203 2581 0.96952
18530 10995 0.506752
5546 13407 0.86094
17017 8566 0.503381
16342 5827 0.7727
7976 652 0.8087
10176 15620 0.61984
7988 3822 0.624006
12421 5503 0.837245
5085 10727 0.168805
6351 19050 0.506349
1928 9714 0.841063
16541 2728 0.753536
10543 4326 0.618461
6995 4589 0.478427
9898 5681 0.371191
3546 10335 0.623821
2696 5406 0.591071
4180 10470 0.161704
1380 617 0.462685
5644 2011 0.196666
18601 17832 0.479759
11354 9447 0.482115
19751 2567 0.810419
8197 13855 0.987015
12883 5091 0.0358827
12631 17603 0.619549
19103 9982 0.0895895
1343 3333 0.868434
17426 10340 0.0527278
13647 5857 0.585179
8836 8608 0.579793
11072 12360 0.562059
5963 5701 0.694179
1357 5090 0.95601
2227 10230 0.438351
6104 5759 0.230625
4238 11975 0.832091
846 4316 0.268192
3589 5495 0.328399
11711 18983 0.839649
4109 15276 0.0651176
11481 9717 0.118809
7957 15259 0.718096
1687 1506 0.608545
161 5909 0.621532
4432 920 0.104972
3835 9680 0.0285483
9105 12218 0.795802
3129 2259 0.335226
7534 188 0.0553572
5155 12009 0.910423
15837 1614 0.348923
5573 19521 0.28125
6901 3970 0.373976
8576 10411 0.539626
7534 5108 0.678807
2709 8596 0.885829
10744 8852 0.819311
17772 9116 0.154254
19908 4387 0.623913
14748 7828 0.117391
3891 3973 0.947978
5683 30 0.681305
16629 11274 0.515411
8626 1991 0.420031
4924 4051 0.107036
7559 7679 0.868418
19398 13963 0.405351
3181 9221 0.689286
5056 11804 0.485916
15213 12297 0.8071
12490 11885 0.0679455
7286 4829 0.205289
5003 428 0.868417
8456 9865 0.402751
3936 12102 0.646142
17771 3563 0.0587561
18066 12380 0.341261
4819 4991 0.524583
7027 3984 0.483477
12929 15908 0.0252207
17593 12040 0.335777
15411 19970 0.635443
19495 5985 0.0822726
5312 16642 0.264627
9847 3280 0.0891786
14395 15907 0.952628
4965 7458 0.189197
1407 5563 0.122931
10461 4551 0.512499
5876 10451 0.25234
19145 4459 0.164032
4787 9149 0.976006
13713 10968 0.44614
148 7159 0.15586
4625 14298 0.548297
14566 8728 0.804413
1168 2575 0.0164877
4053 6388 0.576614
4319 6964 0.0601622
5938 9269 0.346247
13605 1236 0.597894
10287 7073 0.475302
577 9659 0.428221
7386 13470 0.00913659
3198 1763 0.913692
10304 7581 0.835462
12765 12625 0.76814
15666 5056 0.530841
36 6080 0.648645
19577 9426 0.0164154
19776 809 0.926407
5541 7634 0.909382
5436 11330 0.251171
8635 5518 0.361393
225 5290 0.013785
8690 9659 0.835404
10847 1137 0.212057
11711 19868 0.710032
17731 9979 0.439129
9951 11256 0.461574
8598 5218 0.378003
4416 7501 0.46239
10019 8602 0.598768
3989 8132 0.707321
39 4184 0.849531
11596 14700 0.281303
1438 15181 0.998981
14615 10891 0.0353757
4376 11007 0.812671
16030 10650 0.0987936
2437 8659 0.470456
7570 10451 0.0684107
12101 17528 0.0930994
13877 274 0.0398851
7369 4407 0.648755
11348 15845 0.610339
5195 11704 0.534851
850 931 0.24395
8145 13673 0.761459
6435 15424 0.392208
10793 4610 0.553148
4480 6339 0.884207
16153 2559 0.12353
10645 1827 0.867792
8835 2889 0.0952243
1371 9855 0.681
369 1617 0.405552
3317 13546 0.710575
2237 6321 0.624215
1468 9109 0.308204
1713 11335 0.787243
5936 6205 0.278578
2687 11498 0.0882222
13453 9881 0.486591
6964 4158 0.878851
9145 4859 0.518795
17929 12338 0.182134
13767 2991 0.964133
9659 7506 0.518726
3189 6871 0.0516855
12947 19137 0.695143
8727 10235 0.277331
11357 990 0.426139
3631 3365 0.847566
7654 7109 0.35019
13050 16929 0.0664457
8344 10301 0.549284
14113 14678 0.380192
16196 6607 0.976846
6701 2633 0.929388
11639 18971 0.0278282
14874 6117 0.863195
12166 6983 0.6266
11834 4596 0.239371
16018 19883 0.77512
2369 9062 0.414908
3814 18176 0.620502
3468 4233 0.0594553
3954 7925 0.703839
3821 4934 0.282739
6276 11507 0.30597
10493 12637 0.451443
4144 17329 0.788507
10172 10489 0.08875
11421 9571 0.70019
1375 3349 0.99781
15301 11068 0.683037
7770 1975 0.0988175
4835 12500 0.886885
3802 14001 0.0737312
13572 3983 0.111117
2174 5959 0.718884
929 2416 0.0565054
12959 18942 0.553256
14009 10371 0.141234
10146 6280 0.534463
5990 7986 0.60196
4684 11751 0.477664
12552 2875 0.149735
15599 1757 0.720838
16997 1135 0.368927
9120 3011 0.625432
2993 15039 0.21752
15993 4152 0.521969
10765 247 0.0748238
2421 16751 0.186846
18787 6907 0.465426
10922 6364 0.658578
10303 6024 0.547322
11503 1752 0.63955
7458 17136 0.312802
4908 15343 0.546942
12777 15524 0.62935
12550 3383 0.417071
10587 4710 0.947175
9613 18838 0.740726
11931 3528 0.218764
14894 13154 0.367759
6520 4020 0.0265634
1992 690 0.993984
9097 10232 0.318793
9586 10315 0.361607
3696 3861 0.0991882
13807 7260 0.733861
1998 8540 0.380067
19257 4746 0.487425
8486 10920 0.54543
10705 8 0.119999
8236 11526 0.367477
11822 1395 0.99781
1149 9584 0.788259
4963 6698 0.226734
6132 6786 0.234182
5459 11761 0.475751
3676 14985 0.686415
7780 18750 0.629741
6585 12062 0.249036
15737 13706 0.0631716
4932 6368 0.691413
11053 12429 0.550039
221 8677 0.77418
9242 7037 0.955034
4258 5099 0.00336322
8721 9221 0.218763
3068 2259 0.572129
387 17361 0.795577
12109 19708 0.521403
4680 19270 0.0248346
8091 8969 0.605889
11467 12966 0.181117
15623 12004 0.746712
3531 8601 0.283745
6258 2986 0.581209
17016 19715 0.364119
8284 8504 0.843562
1222 4307 0.735881
1676 170 0.00868583
18300 14078 0.864975
5164 18126 0.28962
11633 11086 0.487973
12296 5085 0.621006
10897 450 0.609035
17947 4715 0.487344
4308 2110 0.479109
8972 636 0.910423
3798 9978 0.29492
402 9354 0.839257
3388 968 0.867844
12151 8962 0.557628
4489 7585 0.806939
17173 11748 0.268921
13841 3700 0.313531
18117 14649 0.559773
18115 10179 0.70484
8553 4949 0.0826064
16262 4572 0.534901
11639 3936 0.149267
5299 7998 0.70809
18333 6628 0.162543
4380 17732 0.588105
5226 4620 0.928098
3353 7765 0.91799
9915 4399 0.939593
7193 17322 0.119453
4949 11572 0.396445
19367 12523 0.11613
11186 6350 0.921814
11348 14730 0.0158475
12072 4390 0.603195
17590 5634 0.609745
17925 8641 0.94593
11218 8052 0.847484
8865 8342 0.0663915
19985 15311 0.984751
11819 298 0.589808
7308 18268 0.618423
484 9880 0.355733
16251 12644 0.368503
8211 1462 0.380468
5411 3076 0.643239
8416 4284 0.863911
17110 11376 0.486885
4469 6997 0.591305
470 8527 0.884825
5443 3874 0.704346
7743 10944 0.825446
11131 11571 0.984761
1337 4611 0.498715
2104 11734 0.827698
15463 8174 0.784235
14348 11096 0.898253
16736 7418 0.0901733
5441 2326 0.541445
5087 4125 0.128161
3810 2885 0.165752
11179 12761 0.279094
11751 12494 0.837119
11803 3240 0.211062
297 3713 0.771113
5250 1176 0.434574
9137 5922 0.53636
7155 6758 0.628435
11435 4611 0.149235
6365 12491 0.114999
6180 9280 0.942925
2666 9559 0.948743
2879 18775 0.455866
19122 7940 0.223245
5390 19800 0.1026
14321 11984 0.185566
2365 12258 0.960075
153 1315 0.361769
7737 285 0.807093
13657 17996 0.808233
12909 12707 0.637333
5206 15732 0.0389934
7358 12064 0.717036
2173 11465 0.069988
12222 1128 0.822706
16240 17797 0.253198
12156 2972 0.335125
3251 6342 0.499122
8329 10615 0.268768
4315 12904 0.697462
16850 10028 0.0204757
15169 14943 0.45943
10247 6206 0.383471
10800 9475 0.0374218
18071 1767 0.264715
1422 92 0.939256
10130 19751 0.167005
17689 223 0.405111
17786 16112 0.104183
10624 4092 0.91573
19905 17678 0.599385
1609 12387 0.220685
11536 2091 0.0846272
15470 4616 0.786981
5835 5654 0.0318085
12374 9337 0.239371
8901 8272 0.164534
11085 18484 0.835334
1726 12273 0.882319
2264 13767 0.741524
11075 7840 0.57825
13763 9081 0.68859
3229 13978 0.323648
17183 14416 0.996345
3068 4119 0.110786
5647 5036 0.894861
13195 513 0.640347
1473 19915 0.60365
15975 17276 0.0231549
11223 14146 0.99273
14445 10923 0.904684
17489 1115 0.881566
11230 6688 0.0204776
16261 9420 0.702179
10433 9870 0.213479
11348 12051 0.500678
6014 1798 0.530919
12450 2007 0.349119
10141 9768 0.223804
1152 10205 0.306352
9468 2320 0.709856
10900 314 0.678919
10456 205 0.347534
11505 1911 0.928741
11782 9737 0.26337
12022 12161 0.87417
14608 18754 0.320305
1401 2345 0.0377428
3380 12727 0.296633
194 11333 0.110629
17532 10767 0.457381
17928 9266 0.495593
11795 17932 0.430906
17324 4871 0.0904391
19876 11700 0.102362
11887 10625 0.614175
4595 5589 0.943647
454 18708 0.460692
12193 10479 0.09213
2816 17389 0.771571
6724 4929 0.805649
8828 11590 0.0338564
18025 12319 0.620605
9954 3440 0.0294574
104 9012 0.182134
7468 11954 0.017341
14409 11551 0.894616
2946 3428 0.200805
3973 2010 0.538714
7871 417 0.337078
2953 187 0.0472526
9915 6792 0.605228
139 17724 0.788479
11335 2301 0.0596142
12980 15736 0.0551687
11653 2095 0.81631
2783 4914 0.836424
1073 2163 0.146224
5124 10738 0.288685
6398 5647 0.561865
19622 12351 0.965117
2154 766 0.285934
7061 6908 0.175075
10528 4935 0.0600429
4128 6698 0.372472
14674 161 0.25862
2729 2185 0.597894
17107 15262 0.099041
12167 6027 0.258811
643 5669 0.215263
13234 1246 0.134821
6237 153 0.429113
12982 5858 0.21984
4095 16319 0.984981
11251 4678 0.647458
12368 13697 0.0868244
3342 8135 0.682676
7706 1959 0.964091
5981 701 0.103348
16904 11038 0.697987
9038 7661 0.555322
5098 6369 0.108925
6928 18310 0.431735
10363 2261 0.917079
9263 571 0.850618
2977 2089 0.233502
12744 17260 0.883903
4412 7493 0.821098
13239 9406 0.5504
5099 11110 0.508769
9443 8625 0.43751
7033 19346 0.517671
19092 17575 0.279094
2860 4699 0.679402
10873 7036 0.345585
7282 8532 0.389546
6982 1187 0.549526
11436 17494 0.300018
4463 7879 0.634412
6092 1939 0.51602
15924 3787 0.394037
11587 1046 0.746649
1993 6573 0.0681066
16376 11210 0.207356
15008 18139 0.995684
13297 7736 0.376233
18788 12458 0.821352
11161 19450 0.253388
7242 13877 0.901463
1430 17842 0.217934
16463 780 0.112944
4349 5842 0.784558
11148 12452 0.323553
10736 11940 0.847768
15651 2497 0.528491
6232 3647 0.569848
1272 18879 0.194098
96 5930 0.436481
4543 16908 0.167744
8112 8425 0.925309
555 19290 0.295509
4219 11546 0.0766251
1753 8861 0.0102561
9704 745 0.238415
3230 16684 0.261331
16434 10388 0.702409
4289 6704 0.393134
15371 2556 0.846133
11633 532 0.38389
2265 19140 0.311493
1475 16739 0.0548599
16428 2285 0.989984
4355 9834 0.601194
10224 12285 0.561173
1787 12026 0.603665
7590 4107 0.422653
14156 17950 0.600966
18339 6089 0.461828
10209 448 0.957378
2618 111 0.898692
7828 11480 0.7985
10682 3722 0.70321
5631 8949 0.0126075
2413 6463 0.368499
12707 4883 0.434289
19 543 0.17451
339 8088 0.0275792
7941 1629 0.99627
19541 9584 0.718555
9339 12622 0.875639
3494 8254 0.163808
19599 14726 0.732312
12190 13850 0.0324067
2491 887 0.396626
589 430 0.0605015
14275 92 0.894314
17017 10261 0.718116
7261 19128 0.947
2375 2574 0.257255
13494 12929 0.00385012
15435 19221 0.693394
5048 11257 0.3261
19279 5811 0.687012
9543 9796 0.157187
7768 17468 0.108062
12521 2532 0.992979
2690 9727 0.505212
3091 9733 0.122347
5479 3300 0.288436
19022 3649 0.533707
7286 3771 0.894894
9706 640 0.228554
13400 5932 0.0502609
15583 7085 0.261829
8431 1380 0.51425
2417 1782 0.967755
4130 12081 0.603659
17542 15906 0.807483
10547 1364 0.475429
5116 362 0.405552
67 1129 0.544268
9305 15599 0.0165739
8214 12358 0.701504
9037 5615 0.971718
3454 1499 0.130515
11074 10930 0.298867
2031 860 0.112137
14195 10779 0.501496
18241 981 0.568462
8777 4089 0.288669
12891 4567 0.476336
14203 9991 0.723568
16887 13150 0.559327
5456 2277 0.690451
8460 13195 0.671415
11647 4728 0.714297
4425 16719 0.831615
6607 17234 0.0518696
197 1179 0.171791
5811 4113 0.628477
11958 3348 0.732515
15138 5511 0.332583
18889 17664 0.804749
2169 9364 0.836424
8174 6486 0.514303
888 18922 0.925524
4045 896 0.352857
2168 10083 0.167419
7182 8291 0.865711
9717 8367 0.938635
17528 14461 0.500078
12889 8173 0.974833
278 17133 0.455203
16107 12229 0.117465
16052 4668 0.364507
6341 8185 0.441216
5479 11667 0.0372585
8537 5519 0.759513
10729 9716 0.470456
11402 9739 0.00228475
13485 5409 0.175588
6907 17937 0.309149
5351 14948 0.798333
5617 6869 0.325075
10835 5366 0.486262
13984 2591 0.334419
7937 5740 0.727997
1965 19100 0.429969
12836 18835 0.422857
1601 8734 0.482603
11383 13506 0.179255
4719 5098 0.731996
814 2946 0.073003
13427 1398 0.0685506
7682 10348 0.898933
2048 4468 0.898475
12104 19517 0.731942
10903 5243 0.653038
1767 1293 0.264715
2327 14151 0.877116
1845 13945 0.738561
17063 8278 0.759539
9602 11314 0.409627
9486 13380 0.539071
3100 12629 0.664217
17108 19848 0.0827484
8911 9315 0.209547
1964 1283 0.998329
1671 11039 0.567778
10750 8256 0.355264
16687 11352 0.14318
15018 1342 0.769845
19543 6461 0.124198
196 19085 0.505177
5187 15752 0.27283
6070 18737 0.914968
11446 2633 0.847
16767 11121 0.576234
11244 14821 0.826829
6173 16740 0.208719
6985 7073 0.381083
3062 16905 0.625029
2968 12117 0.0940447
9606 4902 0.678277
9098 8136 0.596146
3161 822 0.139746
11495 414 0.356908
13697 14605 0.553817
4254 5784 0.636063
1395 15162 0.524809
10403 4984 0.0243851
11942 8638 0.511855
16084 18373 0.577155
15757 1324 0.984045
14 13262 0.838752
1023 14586 0.66361
4243 2937 0.845796
14811 5900 0.624003
8881 6165 0.685926
10473 9492 0.488695
17232 11324 0.0451677
3729 12974 0.537437
8366 858 0.929947
2965 5578 0.378225
7381 17686 0.752154
17002 14757 0.0758132
4260 6082 0.808437
9835 13368 0.40098
557 10369 0.989161
2135 3076 0.853428
2188 7024 0.238758
9206 5912 0.405994
11510 18702 0.961198
16016 11525 0.880447
12581 5458 0.261431
16543 5820 0.85222
16886 4079 0.858123
9237 7585 0.927319
17375 337 0.990465
7505 17341 0.491006
12238 12338 0.271551
447 8390 0.334037
5143 2579 0.674794
2803 1637 0.0076568
5108 11892 0.701278
9485 8460 0.590476
13933 8797 0.375041
8690 6974 0.255126
4536 10416 0.146718
7075 1025 0.141073
2690 11604 0.678423
2540 6764 0.535783
18641 9208 0.312305
10272 12578 0.195455
5058 6756 0.990956
12413 3214 0.912032
16317 6076 0.0561492
15541 1927 0.0547092
7002 4052 0.7549
13405 16399 0.270504
9094 17401 0.681028
11077 201 0.799617
8393 9533 0.396336
7239 331 0.739796
12485 10412 0.621648
19554 6681 0.916585
522 266 0.661816
352 6823 0.073847
4046 9999 0.980245
11804 11649 0.0277323
1 15308 0.963677
4124 12062 0.595842
142 7619 0.930898
6001 1245 0.0152389
2288 14459 0.842065
3018 4064 0.678949
18232 14241 0.0701742
17862 5591 0.339505
4834 4147 0.712305
474 11126 0.183346
11298 4954 0.561006
9836 4594 0.517806
9811 9272 0.147803
3235 12497 0.492285
11412 14789 0.505768
5167 11230 0.939528
3878 7330 0.28516
12525 12021 0.331043
2097 9478 0.533933
17750 11102 0.240006
15739 19815 0.916823
3287 1242 0.652191
10980 2803 0.381126
9676 11010 0.449377
3274 15535 0.280735
11615 12448 0.94444
2008 8272 0.83875
595 4666 0.606364
12548 4561 0.0265965
12071 3722 0.197064
819 11355 0.664754
15723 19625 0.113078
10799 7186 0.473828
3523 9907 0.954939
9795 8814 0.936907
2893 8752 0.660047
5535 9516 0.48928
6510 8073 0.450068
12339 11223 0.119135
11218 10703 0.587926
3230 1391 0.205208
16254 17497 0.741094
6220 8372 0.299984
3899 6181 0.589757
480 6830 0.459908
9436 5021 0.838345
13129 7926 0.737867
16429 14244 0.454157
19937 1016 0.472727
10465 5507 0.287735
9571 341 0.167336
476 1227 0.616307
7440 8382 0.506465
13948 8813 0.85047
12272 15945 0.748421
15408 918 0.793664
6475 8162 0.301983
3692 2198 0.860933
2828 1790 0.670696
13008 3708 0.0183616
5247 12449 0.162373
6496 1319 0.963157
14318 19557 0.418358
5387 11797 0.037161
6842 1792 0.478225
4230 2577 0.517148
5270 10949 0.520651
11948 499 0.631191
10474 11616 0.49935
10003 2502 0.255432
9437 16659 0.652925
14560 6418 0.0588971
11023 6492 0.309944
12323 5160 0.380748
3053 8038 0.359986
15600 7000 0.699669
9372 1676 0.804379
6819 13519 0.552813
12322 11642 0.228933
15672 1453 0.233064
15934 19179 0.364274
5448 12337 0.39356
17632 12397 0.186975
8472 11282 0.438141
18373 2673 0.566427
7369 2151 0.0779976
6513 5022 0.579276
5375 10238 0.413298
2328 2493 0.598762
15001 10553 0.843562
7777 2141 0.1722
10153 12654 0.628127
11790 415 0.0555526
524 11962 0.562548
4947 2519 0.567506
1332 10320 0.933889
13501 968 0.0160908
3576 13865 0.574821
12452 6306 0.441176
16984 12118 0.835289
13367 1073 0.566963
6940 6396 0.351035
2657 5029 0.303721
18718 629 0.696931
4730 4179 0.105992
11249 17529 0.623498
5683 11483 0.441088
4137 3057 0.046975
9375 8838 0.208595
8096 9308 0.753765
14286 181 0.810572
5123 4575 0.826266
2482 12696 0.505177
1510 16366 0.862443
3570 6220 0.569029
1063 5259 0.730696
9559 892 0.228296
6522 11225 0.0231999
10965 2535 0.530939
7385 6842 0.16842
7929 3672 0.212358
2534 12101 0.161309
2240 10055 0.134116
19065 19940 0.328886
10092 5126 0.79841
3224 3482 0.964978
7710 130 0.00819768
8969 15503 0.931783
17925 7960 0.983466
7899 15714 0.78141
429 9513 0.134511
16129 17 0.83027
1421 5126 0.184295
5192 4346 0.906367
3082 10130 0.019471
4299 3573 0.886918
13968 13910 0.39631
4056 16671 0.478322
15332 4029 0.171171
7112 6657 0.23734
4836 15945 0.618086
17870 6075 0.5826
9028 1833 0.925493
9059 11223 0.7108
15273 6308 0.965188
2294 18986 0.343278
10493 10988 0.996831
11407 1187 0.824287
7165 10085 0.0326945
6944 9362 0.572222
4892 18056 0.428128
8091 5144 0.294471
3393 10348 0.183776
3450 3680 0.918106
15024 10746 0.91273
4820 7208 0.19845
3242 9365 0.27569
5573 19921 0.175413
17731 7583 0.923958
7032 18931 0.262819
826 19416 0.492392
5903 1103 0.738976
12566 17277 0.643174
11512 13602 0.810665
18828 6483 0.567068
10226 9592 0.639261
4444 7977 0.0116219
16848 10056 0.11976
18339 11369 0.240668
9338 17617 0.433357
2482 9541 0.261211
19940 19967 0.576142
4932 14317 0.996694
16337 19034 0.547806
8074 12585 0.913072
7456 17512 0.15439
4519 12191 0.337243
4141 5397 0.136444
17171 2816 0.854552
8077 10537 0.958766
19097 11506 0.978246
18683 6509 0.928551
5872 8710 0.23648
16276 10427 0.137785
11273 10612 0.387647
10234 10773 0.935154
5505 1014 0.799018
368 5326 0.30622
5085 3749 0.2251
5653 1503 0.188157
277 5309 0.168286
2404 10980 0.729296
8973 14475 0.227673
9804 9988 0.281067
5831 2443 0.672928
5874 6182 0.808374
5079 15407 0.516509
14267 16450 0.291499
3730 3414 0.0102422
9621 18096 0.9513
15361 2374 0.193946
6629 998 0.0960131
3174 3139 0.333462
9570 4252 0.226895
11536 10829 0.362819
12084 4958 0.953039
436 14483 0.0969189
11641 11043 0.161108
1539 7983 0.214968
19495 12057 0.63553
2003 7192 0.89803
9864 16632 0.367004
16941 10282 0.424748
18446 8170 0.756593
14493 18851 0.29357
697 2438 0.452023
3220 2510 0.310412
5102 8811 0.0836948
13381 922 0.366285
11958 4008 0.319586
1156 7180 0.468932
5099 9294 0.355058
336 7782 0.992979
7242 9154 0.145668
4016 18392 0.658085
17791 1625 0.10431
18396 12056 0.557456
2568 12729 0.793563
2903 556 0.158428
12659 6141 0.158825
2818 3890 0.610874
5266 587 0.769151
7387 6704 0.137879
3446 2177 0.480185
11278 2434 0.514035
5505 4020 0.220554
9562 8038 0.588993
7131 6551 0.0185216
2599 8334 0.320257
2848 9897 0.278312
11389 16623 0.938363
1348 16726 0.698627
1534 4669 0.563134
17139 9866 0.834191
14434 11387 0.471158
16076 16162 0.32893
7703 8295 0.901649
15785 13467 0.834598
17482 7544 0.690485
1909 9020 0.612836
8925 17767 0.0967608
8472 11703 0.585581
13888 9837 0.447164
16669 579 0.857186
9232 2119 0.0628893
19963 11880 0.541783
4818 4605 0.339342
4723 9795 0.138504
7425 9339 0.356004
8264 4374 0.189082
7365 1589 0.884375
10211 7176 0.255929
7709 7915 0.434363
4223 12493 0.661788
1351 4907 0.731697
7045 4395 0.636224
9732 13190 0.405911
2280 13334 0.21113
7916 9077 0.636077
16017 11970 0.21856
15527 2435 0.486933
2521 707 0.232028
3937 18597 0.655272
4571 18063 0.0769196
5482 6356 0.462206
6872 17228 0.802822
19587 14328 0.440296
7438 7032 0.998839
5654 990 0.0627553
17749 4980 0.422781
1952 7467 0.51602
7817 15359 0.0142716
7842 15845 0.051445
2894 10868 0.266835
16076 15665 0.402092
6007 4405 0.0759241
5214 12298 0.114233
11839 351 0.45411
11466 3917 0.877688
9584 10529 0.780465
3611 3779 0.276165
12731 909 0.761009
13763 8827 0.396945
11631 372 0.237503
69 15323 0.263488
3443 3763 0.591267
910 19049 0.0748752
3999 11624 0.832416
9940 3968 0.710461
7423 17916 0.444629
654 10573 0.390907
6605 12073 0.653959
9603 10008 0.652569
11839 17310 0.657199
14211 4120 0.539205
4325 5374 0.0522036
10244 3683 0.605068
9950 17606 0.546893
1366 19027 0.101714
8918 7556 0.060118
4741 12013 0.698622
2483 11220 0.842397
9241 6358 0.634838
7278 7847 0.358459
5411 13219 0.489453
10743 11375 0.667069
7618 3786 0.564983
11526 11982 0.294832
8 1555 0.0770426
1970 11692 0.820022
12679 6787 0.17417
11380 9940 0.636063
17297 5282 0.366489
12378 9554 0.589598
12028 12659 0.984597
2479 19918 0.800544
1862 2945 0.663606
1798 19012 0.582085
10780 12206 0.719951
5527 11145 0.497037
14106 640 0.0501893
5974 3281 0.542096
12660 19566 0.526212
10256 8566 0.0446239
1461 9255 0.187291
4117 2168 0.316237
11292 9559 0.214694
8333 8401 0.894423
4434 8143 0.941591
15303 8775 0.304343
8589 994 0.460099
5016 3680 0.492065
1185 4217 0.626948
9769 9932 0.0525402
7652 4043 0.370254
9039 9705 0.756948
19640 13899 0.0176024
2987 12696 0.724601
2788 2745 0.895583
1503 3344 0.721936
11284 14846 0.048192
4972 3255 0.739817
13850 7917 0.279009
3232 7806 0.327291
4794 4146 0.557572
2766 4516 0.130999
2814 11384 0.562195
392 1931 0.740996
10876 15850 0.744636
5152 14809 0.0421369
12916 10462 0.614734
6509 4459 0.782709
7368 6784 0.937768
19204 1243 0.467179
10052 1398 0.347039
8374 6872 0.617919
18443 18374 0.153754
12246 143 0.816523
13115 5349 0.170567
7312 1134 0.550646
9823 12303 0.385662
16178 6373 0.237874
10166 19110 0.772972
2212 4525 0.510624
9333 11104 0.0316266
10964 11747 0.459991
11403 3419 0.384359
5189 17003 0.8422
2211 8987 0.0593932
1799 8280 0.421311
3429 18324 0.0292612
12936 5191 0.842779
168 6945 0.464255
11573 8582 0.960933
6148 11868 0.742772
677 11437 0.602491
2982 12646 0.696264
3309 500 0.0512454
18254 17815 0.859243
17797 6537 0.136461
3314 8324 0.359245
14481 11454 0.0638561
2572 8253 0.272762
5702 10783 0.765088
2105 4047 0.894633
4433 11609 0.976157
19695 4020 0.274316
8884 7984 0.544705
8989 16884 0.863447
1345 12215 0.167905
14825 1005 0.442664
10674 12223 0.394037
6952 3979 0.640721
2546 7444 0.154382
10842 11891 0.944803
10637 544 0.224118
9159 11552 0.400051
8683 15939 0.162528
12585 4201 0.938635
6436 7264 0.00111592
5865 9020 0.286301
253 2867 0.0387165
3317 12849 0.704853
9354 11012 0.201709
16923 4951 0.153597
15836 12601 0.111322
9158 3719 0.937619
10737 7381 0.142233
19596 2484 0.267359
5779 10538 0.912444
3438 7613 0.860761
19926 3156 0.898162
19964 17348 0.480168
8945 6966 0.500334
10160 8064 0.0752694
4877 14401 0.436938
19882 6020 0.276979
3544 11377 0.282595
17777 7555 0.989482
4263 2432 0.306884
19699 4239 0.370221
14040 9929 0.0584154
3249 16455 0.76315
11374 5757 0.395954
2511 11124 0.83092
1286 17450 0.742371
1656 13617 0.543948
10888 11380 0.831113
10499 136 0.609389
4321 13305 0.497352
5660 11105 0.968412
3331 16668 0.0548191
12153 15492 0.986027
6818 10399 0.814674
11370 3093 0.434101
6071 1588 0.0179295
17261 2531 0.493634
4565 19843 0.928434
14542 1548 0.0293934
12303 12425 0.233535
4553 864 0.806459
7816 622 0.398954
9199 13016 0.416976
5037 7253 0.823457
4193 6054 0.626326
1838 19361 0.148416
18221 1510 0.528797
3668 12911 0.878607
6556 6758 0.609963
10586 15976 0.672487
7857 10877 0.626665
8974 2962 0.248387
8834 9222 0.783372
8459 8511 0.705929
13916 17880 0.702144
238 3323 0.803681
12193 12725 0.610198
7387 8760 0.257016
4327 8815 0.693113
4356 912 0.648071
3794 10918 0.757986
9137 6543 0.380798
5948 2954 0.382335
1475 817 0.638536
2743 11129 0.0947049
4216 14493 0.775872
19412 14134 0.954696
2360 8153 0.365717
5670 6287 0.713093
2011 3847 0.48368
9529 9151 0.725521
2436 18690 0.768866
16015 10027 0.19534
3189 13277 0.00969185
2901 1361 0.244964
1394 5663 0.225749
5171 4630 0.907217
11574 18518 0.84529
7949 921 0.812754
10870 16773 0.914658
11968 15983 0.149599
7813 16014 0.458826
18956 8530 0.914084
11693 13671 0.0509374
4267 15481 0.519715
3063 7193 0.134511
15224 1323 0.362987
4446 12265 0.567567
6653 1189 0.6699
10544 5387 0.489489
4116 8395 0.351678
3051 6274 0.59889
1456 3350 0.133511
16528 15578 0.287015
5995 9558 0.372081
17404 5348 0.0760599
476 8611 0.205585
19372 10553 0.0617672
2168 6896 0.908386
10695 5719 0.197216
3117 6553 0.796376
10494 413 0.44485
11652 18350 0.642672
8023 7797 0.628142
11187 10874 0.691979
17586 5855 0.82534
7704 17451 0.774882
1097 1055 0.390489
8537 2823 0.636374
11113 8251 0.356759
3293 5641 0.322724
9000 4860 0.0981225
550 13926 0.207172
6286 10333 0.0185216
907 14417 0.306945
14741 2232 0.11492
5208 7366 0.48221
9945 10901 0.98387
9197 4435 0.85297
1739 2437 0.069688
1635 1885 0.0617521
7150 16164 0.470318
7526 11086 0.785121
10397 19237 0.506309
1613 51 0.247429
6309 4943 0.73643
257 6056 0.513674
2618 7149 0.316428
5307 5990 0.570833
17046 12375 0.942925
9429 11978 0.966648
7425 13702 0.253231
3265 19346 0.809392
15527 968 0.435007
13688 14678 0.0525872
10959 2406 0.473826
8357 11860 0.280442
10280 8518 0.936926
9391 4158 0.439388
16295 1415 0.985396
515 10064 0.981734
7472 3377 0.667927
16143 8115 0.439712
6509 12227 0.493535
4438 11285 0.172457
9231 3482 0.186258
61 3558 0.897088
5110 4251 0.705344
19041 9130 0.855436
8244 293 0.880971
12442 4921 0.21573
6347 5297 0.820962
3660 7070 0.277409
8279 18312 0.240068
7726 18851 0.665303
3525 9178 0.404863
14625 13364 0.424401
3197 694 0.286116
11425 7593 0.564777
14634 1180 0.771987
3444 8221 0.144929
17994 8802 0.371306
7436 1900 0.121123
15429 9415 0.360387
10537 4778 0.998283
5774 4224 0.734944
7090 1279 0.794905
8521 612 0.385599
4580 3867 0.760423
8233 1310 0.383128
1658 10574 0.31302
15816 9613 0.180178
2662 14953 0.642507
1123 6762 0.0617587
11320 5170 0.322508
18060 2751 0.803131
11938 5674 0.757146
11720 16562 0.7669
10070 198 0.189544
15039 19867 0.369464
327 450 0.68551
9625 3975 0.640546
17910 10597 0.376176
3581 4699 0.328864
17514 8645 0.820356
4481 6090 0.47529
12089 17575 0.276165
7650 8662 0.840292
5311 1100 0.848276
10692 4940 0.952728
8356 6310 0.492703
5843 5988 0.561111
13594 12453 0.960708
4118 12217 0.953189
12405 10685 0.469069
13456 6573 0.956287
3766 89 0.463614
9009 6424 0.800135
5387 10353 0.0276439
8677 2441 0.277228
6607 469 0.691792
18709 3931 0.917257
9278 12646 0.441641
16009 1285 0.276218
9954 14891 0.320767
10254 8758 0.269318
10981 13786 0.471401
8943 2177 0.129907
19856 3718 0.979689
6978 9040 0.661277
2636 8230 0.0314942
13336 1206 0.767771
18742 3675 0.657261
5265 9913 0.792893
293 14538 0.400471
13902 16029 0.125485
10919 14102 0.268642
3680 19896 0.432145
8953 2864 0.986169
532 10471 0.37547
9880 14195 0.0832377
8246 16039 0.443016
2012 8175 0.678986
4125 11211 0.299353
4492 11638 0.683163
6027 16001 0.443794
10631 681 0.592024
2166 7002 0.973096
13618 1190 0.358559
15837 3531 0.543877
9401 2218 0.757012
14237 1607 0.981222
9918 6112 0.657215
12495 874 0.683442
15311 11740 0.108062
4856 256 0.997656
6899 19606 0.9275
9830 3286 0.376561
8638 12645 0.451712
937 6656 0.567896
4996 19392 0.0192809
5309 5338 0.723646
8484 5057 0.0594673
8112 2582 0.750115
13659 843 0.784867
18879 309 0.255137
330 13521 0.302962
3700 16709 0.216903
1360 5179 0.937212
13242 9940 0.209217
552 4169 0.402308
13921 8837 0.744105
13011 18961 0.137917
7200 9419 0.0735159
10887 4349 0.143326
14014 6785 0.190938
15496 12569 0.934894
4568 2620 0.117729
12403 18344 0.483391
18724 81 0.490692
15084 17034 0.209314
1941 9282 0.822362
8357 15553 0.921514
15004 19232 0.916668
15036 11952 0.0723216
16697 3146 0.948487
1878 5747 0.39663
13634 4697 0.345151
2897 4870 0.380613
1213 7231 0.12367
6812 9344 0.957055
4443 9556 0.995353
17369 9708 0.72746
9613 12891 0.293709
8397 2682 0.331797
852 9941 0.724522
6633 4957 0.665107
11083 5612 0.0393399
12249 17658 0.0941864
4303 4521 0.346672
6497 18699 0.0477912
948 7158 0.676226
10590 5159 0.309898
14157 10845 0.458233
9275 3250 0.619137
4041 18873 0.0979422
9090 8992 0.705838
8619 5999 0.868981
5724 322 0.760995
4239 10268 0.934328
828 19873 0.379469
1215 11008 0.233859
11229 1428 0.387028
12771 7645 0.342454
7016 5048 0.570971
16892 4300 0.811639
19801 4191 0.208475
15380 15582 0.57158
11093 14230 0.233191
178 18640 0.164882
11972 8818 0.941228
4920 9142 0.0391479
10151 4323 0.402592
7518 11 0.376795
2085 5059 0.464876
8973 7841 0.422372
10892 6789 0.643796
11271 4179 0.315135
19036 10899 0.941302
8212 5866 0.00489035
1920 7436 0.635296
9162 11618 0.762297
1684 3383 0.717034
7981 4013 0.064544
2654 19702 0.152578
5097 13224 0.547918
7506 8856 0.900444
9569 12376 0.579775
7165 12696 0.323551
4426 6639 0.49783
11775 19292 0.105569
1064 791 0.542863
8765 8637 0.621532
11281 12789 0.41405
19587 10962 0.989171
1855 13302 0.257234
10055 17228 0.713044
4596 12971 0.365391
10416 6907 0.675115
8640 5263 0.0285483
17977 3767 0.957378
13058 4728 0.18728
7699 12267 0.499785
5243 18705 0.193628
12389 3163 0.697268
14855 15748 0.389028
7596 8555 0.78271
540 2504 0.898397
11207 11319 0.204345
1769 16313 0.337498
3118 3235 0.778378
15668 627 0.79057
19148 11524 0.290789
3930 3961 0.3775
2557 2611 0.408252
3756 16143 0.0915806
482 7957 0.382656
12115 19803 0.809423
272 18015 0.677854
5724 8776 0.490549
626 12491 0.622474
4866 9293 0.218486
11786 5520 0.093614
6178 515 0.114808
17267 11464 0.575233
1968 7794 0.373319
12203 8712 0.0918482
6742 7425 0.820154
2204 15293 0.0734214
8738 5687 0.269519
6050 1625 0.33514
6416 11941 0.655156
7948 10261 0.628378
2482 12620 0.275099
7466 1926 0.204449
5961 4385 0.767362
382 1322 0.644916
5642 8918 0.999404
13619 10531 0.4977
7356 2850 0.823981
1839 13056 0.553212
2510 3539 0.0710518
18056 8543 0.678967
10525 11707 0.731432
7305 1632 0.934851
6082 16130 0.308458
4408 3449 0.845184
11226 12116 0.0681326
1825 14230 0.553001
569 9520 0.203941
4989 5993 0.132987
5407 11933 0.448954
18648 1405 0.196084
6144 17617 0.459209
4499 7390 0.225488
14562 9250 0.426671
11955 18053 0.601057
16531 7914 0.295723
17137 4369 0.846492
2678 4386 0.339171
2294 9231 0.763394
19730 8413 0.935294
3733 715 0.760906
6562 1172 0.873239
3604 14053 0.0127094
8556 2676 0.0858705
9234 5603 0.554415
6233 39 0.584388
5864 6157 0.200973
12297 536 0.393283
11822 11119 0.989928
9675 10980 0.617709
8099 9269 0.827338
9565 1470 0.215404
11762 10147 0.111117
6130 2919 0.832315
2548 3808 0.326386
3481 17248 0.746203
1370 1986 0.0543913
1649 5221 0.704637
8223 70 0.0240911
1784 2659 0.112611
18778 5600 0.854134
7056 9186 0.804823
18525 4752 0.692314
14711 7358 0.223103
1215 7288 0.447364
4226 11611 0.533355
4202 12024 0.706752
14093 14067 0.657749
8574 190 0.746731
6821 6665 0.503723
7994 5051 0.728875
9643 875 0.562992
7662 7149 0.641641
3293 6832 0.669344
9198 2045 0.806298
11743 7374 0.597529
5849 6415 0.373969
3244 9687 0.0417457
14534 19157 0.801878
8651 17177 0.0176024
13881 16689 0.0469902
5100 6585 0.611047
17740 12754 0.257919
2651 7231 0.985101
586 9914 0.226137
4654 8098 0.626468
18696 3520 0.6372
14920 12167 0.00133163
11907 597 0.262825
4207 983 0.947379
8864 10081 0.022955
19012 19929 0.68046
3756 4723 0.30423
4660 14236 0.930515
19905 17893 0.209613
9102 18851 0.507272
2965 4361 0.438953
11454 5722 0.275872
2185 1090 0.165729
8540 8849 0.146416
17778 19707 0.0432095
10148 11958 0.768922
18081 6139 0.912625
4277 3674 0.651833
11527 3032 0.00292145
10656 7511 0.635493
13588 16857 0.88407
2972 16598 0.873022
2547 11256 0.93627
12465 84 0.899836
4085 11171 0.441093
6877 14561 0.486034
17950 2228 0.166267
7028 10180 0.322981
19485 11532 0.402118
9847 429 0.510329
8692 5789 0.459068
13337 19574 0.77475
3035 7268 0.801737
1935 2622 0.135258
4361 10153 0.457038
4637 4105 0.908386
7607 12757 0.767693
8884 7465 0.679786
1371 5574 0.587331
4025 1700 0.505831
9144 6619 0.523699
9947 2865 0.660411
12902 17157 0.0448146
5525 11578 0.357899
11696 5129 0.763364
6928 19996 0.605047
10117 10462 0.718718
11991 16213 0.375326
11669 1294 0.00133287
19769 19002 0.478662
9355 4533 0.0757505
2821 3434 0.41943
16443 9582 0.718166
19551 4300 0.535256
14689 10530 0.494036
4496 10281 0.893242
9983 8317 0.0720209
8908 7161 0.719623
10023 705 0.0372585
12588 1234 0.53755
12397 6334 0.395475
11485 4304 0.634156
10242 4718 0.519715
11269 11363 0.273065
16678 3073 0.328403
4531 3865 0.925358
4590 18248 0.317251
17235 10792 0.123821
12719 8376 0.54252
13351 3624 0.771367
5964 2072 0.649927
5726 923 0.643385
14463 2327 0.871029
14869 11866 0.0823964
3948 4284 0.792571
29 12411 0.603709
2301 3627 0.837145
14361 7692 0.456014
6266 9095 0.448795
10115 2420 0.427639
12009 7225 0.901071
8435 19854 0.845184
16747 15936 0.485184
6969 15494 0.578299
2994 2298 0.00592246
10101 12669 0.564724
10132 12083 0.475429
12472 3352 0.0304261
12420 11134 0.450608
14424 8190 0.0372585
3592 18597 0.483143
11066 9585 0.930494
11698 4479 0.697459
7201 11599 0.71251
9021 3281 0.872672
5163 7255 0.0234899
11031 2735 0.916502
4167 7523 0.581495
14211 4425 0.279403
6001 2947 0.677817
18511 912 0.473774
2754 18593 0.0906488
18663 404 0.77726
16102 19396 0.799592
12450 1518 0.689103
8230 498 0.312147
5078 17464 0.97042
12801 16314 0.0198876
12602 618 0.919475
8984 6815 0.66738
12528 9501 0.939593
17507 16587 0.25177
14027 16472 0.38919
5836 17987 0.119359
5400 5842 0.289625
15987 12011 0.12506
14904 7998 0.559427
8606 7453 0.189234
15906 7209 0.26289
9603 9712 0.33892
9949 1589 0.865406
7672 8087 0.87021
497 5573 0.380784
17859 7713 0.669116
13402 6845 0.12928
19542 12268 0.604545
10053 1288 0.133032
13816 4203 0.0642643
5790 3733 0.204429
406 19014 0.871418
10251 12533 0.0621168
6255 7684 0.237557
6494 1170 0.885149
9901 7218 0.0428435
12641 1139 0.931323
16700 1358 0.805972
6263 14620 0.567694
18301 8735 0.824729
17929 1763 0.505893
6434 6377 0.181439
18010 16597 0.595697
15981 7565 0.0182972
1664 14356 0.143659
10990 7432 0.535963
5690 16785 0.569634
2328 3788 0.0975483
12333 976 0.85183
11069 19839 0.491241
16110 1821 0.384105
12255 6808 0.17071
2769 14022 0.513595
7946 3729 0.66871
2903 442 0.462206
14988 9391 0.305593
12 14385 0.879687
2195 10865 0.0786973
3081 16061 0.343842
11887 8438 0.253148
8388 13506 0.0257305
9504 5632 0.542772
12313 18690 0.491833
12425 1312 0.52245
4391 7229 0.664949
757 1666 0.588826
16778 13911 0.0183674
12016 10163 0.183776
2986 5387 0.716281
12769 2874 0.652406
11974 5184 0.918447
7422 3873 0.712098
6100 7232 0.644607
19983 13967 0.619316
8239 5478 0.111047
15928 17151 0.422917
5197 1689 0.894862
10014 12609 0.266345
2459 4133 0.752281
12650 7811 0.894398
8451 17751 0.299193
14777 728 0.920082
5313 5923 0.656587
12575 11906 0.821975
3072 14 0.996641
7404 14583 0.483596
9765 1075 0.407346
329 12318 0.945354
6464 1075 0.62186
2926 2113 0.818824
10984 560 0.892312
14259 13685 0.210707
7381 7640 0.787642
708 8143 0.0138403
6224 13594 0.831342
10654 8407 0.692615
1503 3264 0.596439
1359 6324 0.965874
4443 6556 0.59108
1938 2620 0.514104
17874 18006 0.623843
8621 3163 0.863653
19596 7036 0.158261
7544 18365 0.551638
2482 10421 0.858193
9972 2988 0.175313
5530 11840 0.589246
4496 12472 0.0853457
1363 1639 0.714795
5206 10815 0.0143347
8372 803 0.831808
4356 6617 0.0209521
10323 6197 0.184514
1593 14123 0.245438
10098 11661 0.812222
9077 19263 0.512889
3839 2450 0.017649
12758 15077 0.262407
10801 7471 0.534922
3186 8188 0.736746
8830 3850 0.151216
8245 8842 0.445645
10709 2850 0.525441
893 9671 0.155172
15907 4656 0.662313
6665 12887 0.973961
1235 6279 0.112261
2428 14533 0.460073
7158 11561 0.48148
16607 1056 0.546312
8280 8987 0.940553
996 4592 0.313366
13108 11316 0.242551
4991 1482 0.726587
8683 17942 0.608423
7220 14031 0.444584
2901 8679 0.120778
4131 8898 0.539876
8748 3592 0.659336
13168 2535 0.939917
164 3593 0.307699
1722 16733 0.41077
18369 4440 0.642168
14192 4043 0.028315
740 15094 0.615115
1310 11118 0.490176
19895 8837 0.186258
17248 7721 0.0142865
10842 3438 0.996459
3349 5441 0.366298
2899 665 0.388719
6480 12439 0.0748171
11820 8746 0.823521
6498 4911 0.0960729
8329 10466 0.0531889
6240 3242 0.503022
7938 1323 0.633236
18634 10925 0.0947796
17366 8477 0.207356
7139 9241 0.903196
11244 4755 0.22425
6510 8073 0.260395
4145 5877 0.0518787
11035 11709 0.217419
19068 10045 0.951227
8934 10144 0.341261
1811 901 0.776974
3491 19741 0.0363789
2900 11092 0.121231
8405 12703 0.191143
16553 1471 0.0420397
17263 17712 0.229859
11959 8371 0.52605
8934 18012 0.026113
16962 5568 0.196662
1600 1228 0.508031
11627 8255 0.387843
52 16222 0.325479
19919 12885 0.232266
19137 19070 0.142525
11890 1785 0.710513
7810 4793 0.980316
18219 19333 0.842956
3939 3329 0.457897
179 9074 0.997141
16594 3082 0.616173
5419 1478 0.857457
4931 10823 0.947802
18216 9222 0.802103
12886 2647 0.328022
13662 12723 0.0880298
1213 3867 0.822228
10327 17198 0.587512
6622 4326 0.29043
12585 8710 0.940543
5029 3196 0.763337
13778 1283 0.14928
8402 2054 0.118505
18096 10835 0.175292
14269 1152 0.757346
7589 11581 0.569121
4031 3136 0.182667
6688 13721 0.450068
13608 3187 0.547833
347 11714 0.457086
11402 10074 0.21695
10749 8971 0.664864
12902 15039 0.297849
6312 2483 0.595844
4295 7883 0.966449
3104 6878 0.207913
19714 1577 0.263835
4972 9884 0.0290838
1787 19320 0.351453
5766 6574 0.934301
2644 4228 0.353291
17362 7718 0.575674
1374 4540 0.428274
19698 4928 0.836499
5053 12042 0.0265812
6647 1691 0.0535145
18013 5006 0.969456
7940 19981 0.205526
6855 6868 0.192869
16946 18218 0.537903
2848 4236 0.806223
1176 4151 0.224346
2507 19364 0.487491
625 2048 0.535963
6319 5126 0.223421
1429 11198 0.263996
19935 2077 0.865803
16823 4865 0.615262
7691 6223 0.132361
5446 620 0.450175
3569 12312 0.149169
4078 19860 0.401035
13837 8358 0.345309
3694 8039 0.982619
6046 781 0.11374
11132 2939 0.171283
19326 12093 0.548719
18543 239 0.212452
3385 9849 0.955738
7259 15708 0.602946
16781 3288 0.955833
12268 17831 0.133703
3014 875 0.103542
6427 15372 0.382956
6698 14161 0.285737
13374 3835 0.704137
10085 14904 0.602613
10762 7702 0.00592246
12648 11727 0.44055
7935 531 0.272668
9706 14047 0.934396
7062 13745 0.0484252
8149 5081 0.547888
3079 4215 0.0328138
59 12375 0.000483681
6088 18341 0.297259
1809 1810 0.0405497
9360 5269 0.0167831
17352 3314 0.447637
8339 10951 0.808624
2475 19579 0.73181
7140 10210 0.649594
4972 13319 0.352373
16110 7106 0.382436
11941 5101 0.775365
19365 11320 0.736993
2022 1846 0.559274
5698 16481 0.459655
12377 15171 0.6651
2616 17437 0.623417
10550 1257 0.0530974
16443 2722 0.693245
11647 18547 0.465522
10579 210 0.00424125
835 373 0.961715
3268 3698 0.960532
1342 2560 0.193458
2835 6272 0.137832
2411 3254 0.395723
3199 18713 0.516866
1883 9915 0.970193
15835 1189 0.13456
7673 19624 0.612192
4064 1888 0.520759
12263 10913 0.363926
12450 6938 0.340302
5596 19282 0.459839
8744 1172 0.17863
8642 4208 0.363955
16761 8818 0.54877
2419 4616 0.984489
3853 17103 0.327642
5939 11940 0.304929
3668 18802 0.421867
15792 1473 0.299096
13729 10711 0.23594
4327 13410 0.00917519
9821 4428 0.471151
12302 6655 0.163615
13394 11143 0.307137
8358 551 0.883446
19562 3923 0.599975
11441 6937 0.067711
10058 11586 0.349961
17177 14085 0.133795
15613 4217 0.883336
6677 2598 0.892447
3888 7630 0.641655
18516 3159 0.423632
6144 5790 0.819847
4294 2311 0.639927
2806 3857 0.132471
2361 10821 0.13631
5288 3083 0.209583
12128 13904 0.534392
11543 19123 0.265808
3162 11659 0.718555
7984 4606 0.181823
8578 18840 0.150757
3150 3390 0.369595
6520 4533 0.839612
320 11575 0.398643
3458 17125 0.189263
1261 3554 0.928669
6552 2268 0.21028
2169 19761 0.649927
17790 15191 0.811323
6249 5735 0.469471
3552 11926 0.372605
11430 19608 0.956288
2278 5200 0.000116516
9167 5695 0.378418
12428 10440 0.0226386
2060 10424 0.497467
10908 1239 0.3641
18367 6909 0.198878
1070 9104 0.0182609
8565 6821 0.851165
10678 9835 0.133795
6674 15568 0.0161952
5534 12338 0.589705
13205 4765 0.66023
7377 19824 0.972214
6187 4492 0.546852
10276 3963 0.162081
11515 13576 0.85091
4029 3059 0.406796
12298 5503 0.515155
3493 19963 0.334218
8216 6958 0.44485
3508 12754 0.371084
13264 400 0.855782
5922 7674 0.453986
1608 2746 0.857329
14699 4112 0.0560019
5405 565 0.874798
10007 12024 0.205585
3609 9701 0.0528821
8564 14989 0.593955
7087 12151 0.133889
3509 7636 0.803421
11026 3456 0.77962
1717 12647 0.504967
2232 10645 0.877854
6952 1919 0.439606
1738 17396 0.864572
17371 4639 0.0100665
2605 10625 0.598907
1868 8885 0.123753
13699 6643 0.209862
12468 11328 0.345309
16972 7558 0.772347
17569 3470 0.101427
8683 17340 0.55231
3806 13619 0.958972
16712 10896 0.0888921
11236 14022 0.96888
4665 2877 0.366606
3883 19171 0.450068
2957 3062 0.85389
2114 11958 0.884445
15384 17902 0.951138
6061 18274 0.20331
5280 16965 0.924941
7024 9432 0.908591
10595 9304 0.782537
5992 10615 0.684965
1173 5664 0.939071
5828 9361 0.40869
10411 12674 0.904503
6910 17413 0.107418
8693 18891 0.402348
4799 14773 0.434563
9949 5534 0.33497
6478 381 0.437952
186 14955 0.452696
15504 10577 0.736583
4487 2785 0.101155
13827 12088 0.326572
10024 16631 0.383374
89 7334 0.888264
12165 16412 0.848787
5374 17964 0.285906
2037 6390 0.750783
15155 2690 0.906173
15107 16712 0.507539
7672 8526 0.869009
11385 19767 0.0121628
4525 11914 0.236433
4592 438 0.737652
19313 3454 0.532207
12008 12021 0.23562
1299 17838 0.00665496
14352 12474 0.599471
7121 14181 0.969902
19550 19434 0.31416
1308 2501 0.589683
3252 6506 0.0292803
5331 620 0.9871
3377 8144 0.435796
1744 14847 0.136742
12045 9869 0.495053
572 13847 0.607893
14070 4344 0.257919
8099 7059 0.496989
2598 18948 0.775365
2398 7884 0.485146
1187 18276 0.324925
6339 154 0.490168
2214 5162 0.565846
12697 14370 0.944133
15133 10731 0.908393
6576 1154 0.10311
8472 11272 0.856179
10119 4183 0.88332
16968 1517 0.204066
6925 12200 0.742327
14340 2479 0.0516488
17649 15517 0.470448
171 14620 0.835857
3633 13632 0.677696
7072 17752 0.115322
9310 4493 0.626075
18355 13929 0.698269
12474 5630 0.188619
2134 19172 0.751192
8977 18244 0.101946
19254 14731 0.881976
19516 5020 0.0144954
6695 7321 0.43549
2100 10256 0.287877
3825 9487 0.310144
11058 4603 0.00582467
10888 4550 0.10292
2080 5409 0.550864
11753 11420 0.584392
19421 864 0.098658
558 3287 0.343086
12446 11442 0.114638
5239 16901 0.76472
1774 3466 0.942834
1072 10364 0.67879
3255 7822 0.670092
1319 4474 0.623792
4468 19555 0.809301
6016 5765 0.962038
3794 2921 0.677239
8902 10891 0.232107
6125 2502 0.159676
7494 7740 0.650407
7301 125 0.302318
5551 4731 0.842447
17346 323 0.523468
2107 2530 0.812906
2309 19522 0.671174
2018 3220 0.229844
4236 8646 0.798948
2528 857 0.268544
11071 19029 0.165512
6391 9768 0.0800366
16064 15046 0.125903
4310 7491 0.246745
14437 19671 0.94564
17484 5257 0.98483
3723 16431 0.758275
19413 4095 0.00968841
15792 9231 0.672231
18633 4701 0.00674484
12043 4946 0.879337
1116 9235 0.604171
3330 6849 0.735354
6331 8904 0.0555703
3924 18006 0.0100665
14350 12702 0.788985
10148 4971 0.571167
6055 1980 0.806142
18636 6151 0.226566
1239 8556 0.931783
14697 2760 0.277429
7900 8610 0.276181
8769 16153 0.0677665
9628 9573 0.325271
12581 4797 0.524085
17858 10839 0.979747
15913 9160 0.360353
10977 11655 0.468757
7544 19583 0.762368
15761 5669 0.077224
8307 1788 0.535352
2107 3672 0.403186
17600 10622 0.589808
12033 11042 0.592024
2051 1728 0.989546
7098 15668 0.93824
3763 5242 0.958113
1272 18440 0.59406
10860 11150 0.18627
12723 11171 0.800285
19936 12260 0.199356
2941 10241 0.31351
15714 5908 0.99118
10882 16014 0.225895
4695 5250 0.339727
5609 5655 0.512384
10811 9595 0.241122
5029 16267 0.918596
13140 11107 0.587586
12391 7363 0.441641
16187 7608 0.173867
6215 4115 0.919465
5043 16738 0.545509
396 7964 0.0148915
3285 10763 0.0503197
14607 10226 0.164837
436 15085 0.181881
11060 8320 0.924087
13635 3392 0.159196
10477 8697 0.344888
3407 9057 0.0214998
16548 11598 0.84463
515 8237 0.114475
5323 14452 0.430855
3201 3447 0.309149
3418 10752 0.0907064
3627 11846 0.784447
12609 12628 0.330183
120 2091 0.600966
3953 4844 0.787762
2979 392 0.670696
8268 554 0.162409
13548 4234 0.353764
3434 11000 0.106132
4743 620 0.246142
11507 12651 0.358
4312 1701 0.777846
2916 10072 0.440346
10872 14225 0.159445
4111 16637 0.0549735
8619 3410 0.568935
9539 16848 0.940165
13676 11373 0.584984
15456 19341 0.900592
2619 16842 0.900122
12221 15168 0.234107
18265 9025 0.0624478
11204 19008 0.00336322
15981 8727 0.0614924
1589 2812 0.67629
15700 6395 0.909022
9100 2000 0.977336
232 250 0.396387
2629 9439 0.985685
13885 3246 0.847
4518 9511 0.33514
1832 6083 0.639325
11621 2421 0.737478
3430 11570 0.840542
15273 1845 0.297003
8688 8807 0.598489
4097 4322 0.0060325
11910 7362 0.545222
6181 5041 0.199113
16136 1389 0.326122
10410 19634 0.747528
17017 8768 0.372215
9241 11483 0.731988
3878 12230 0.780518
2273 19494 0.570205
15676 2671 0.449127
7910 11843 0.4977
19171 11425 0.724522
2673 4989 0.50866
12515 14538 0.332833
18962 19601 0.764595
1975 4549 0.918781
2528 14843 0.00511992
878 13415 0.550191
8018 15927 0.926266
797 12729 0.553148
12024 18437 0.449381
13643 3088 0.3261
7605 7197 0.12528
17841 2807 0.966802
5059 7104 0.700792
8016 19739 0.199768
3037 19722 0.12483
5917 6669 0.903912
4072 9392 0.00283546
215 15493 0.364911
12110 15612 0.492648
15144 17364 0.202421
10420 8165 0.518482
1098 4094 0.34495
19291 11559 0.609987
18927 18206 0.608193
3603 3934 0.970982
5722 5324 0.883328
10602 5366 0.220735
10746 4962 0.381416
7007 6213 0.919299
6478 5730 0.0201678
11775 18023 0.510055
6013 9470 0.597055
15630 4302 0.329756
17845 104 0.137588
18846 5765 0.0693973
6427 7449 0.225511
7689 9793 0.591357
2538 8432 0.927377
11840 11916 0.172782
5671 654 0.918605
6648 155 0.515933
8098 16325 0.872089
14260 4945 0.694417
17261 17320 0.709034
13023 11209 0.845977
11532 6984 0.716175
8702 8323 0.108925
5311 10909 0.183996
7833 1631 0.395269
10974 7684 0.205573
13088 4587 0.914968
6848 9682 0.112258
12103 899 0.468987
2639 13194 0.439846
5161 10522 0.499627
4608 8721 0.271704
6486 4083 0.27629
4281 11497 0.683434
4282 8577 0.382824
5955 16585 0.439034
11364 5167 0.804379
12438 9218 0.424543
5713 8627 0.711983
12502 4349 0.0238288
19025 6619 0.850854
4903 4220 0.337921
875 8688 0.580253
8107 1195 0.968377
12418 16315 0.0527394
2014 6586 0.952728
6964 314 0.683442
9096 15118 0.589822
12324 7416 0.646754
3110 5131 0.212358
16372 11519 0.893935
4488 9357 0.352218
10854 7108 0.997471
16184 1721 0.39371
16347 11328 0.00929769
14085 16551 0.162299
9631 6817 0.481106
14150 19384 0.6746
6080 1439 0.645334
12568 1761 0.760077
9284 19399 0.405351
3134 12033 0.760811
19087 798 0.0291584
19133 7400 0.187986
8325 9641 0.981788
10580 16907 0.548484
6154 18778 0.803625
16478 17110 0.0578218
1169 1933 0.326386
5 6928 0.383383
1922 4999 0.966464
8479 2059 0.481333
12062 2710 0.367573
6666 7549 0.462883
1901 821 0.616954
2898 11298 0.104291
5297 1135 0.172778
7840 1835 0.454104
1966 7817 0.59543
7635 10208 0.873638
12483 9734 0.432521
2986 1921 0.887613
12890 18696 0.60385
13171 11594 0.803681
18192 7082 0.178651
19075 5610 0.606509
11992 600 0.404631
9842 281 0.526025
5730 8917 0.439906
6589 4106 0.624943
8167 4754 0.762109
18629 11727 0.139358
9152 1346 0.294405
17950 9617 0.727513
11282 10565 0.423228
4572 3849 0.859267
28 5473 0.0583389
2399 13871 0.735175
1237 7073 0.793681
5450 8770 0.493719
7204 4389 0.821955
9965 13715 0.236676
18593 15539 0.530081
7353 14435 0.934368
10804 26 0.817684
939 410 0.908393
1594 17649 0.610921
9831 13691 0.523199
13414 2354 0.116747
12060 7661 0.984129
13810 13995 0.213562
3208 138 0.393083
1098 11845 0.898162
5806 3541 0.0438244
5906 7588 0.888707
5291 9350 0.888341
11927 16471 0.862895
7756 109 0.813901
7667 16242 0.0679455
8341 4433 0.891671
4980 19749 0.688991
6119 14535 0.658489
6732 7733 0.0369782
13277 10409 0.614449
6714 1469 0.184818
17413 4172 0.482799
7144 11005 0.991161
12004 2372 0.657797
11677 16566 0.435745
12257 12079 0.473619
2611 3229 0.0159392
1670 16062 0.139746
8460 9 0.116524
13902 9325 0.782961
6342 4969 0.717614
17669 17656 0.457828
2342 9637 0.309153
6663 14502 0.974911
3436 10007 0.365686
6169 7352 0.477589
10219 3229 0.634001
7640 14301 0.305033
9452 3178 0.906409
8214 12357 0.64993
305 19082 0.0575588
17226 5746 0.847824
11798 19414 0.951608
12705 15354 0.712512
2422 12152 0.38389
6723 8695 0.489489
17459 8847 0.75795
341 7271 0.0684
4612 1299 0.326834
14429 5383 0.620957
11912 17459 0.839064
7038 4681 0.467813
5962 6959 0.217214
16708 9565 0.443727
10209 1358 0.334315
5427 16431 0.289057
17352 7171 0.288266
6330 914 0.0685506
5686 13656 0.515915
11929 15498 0.605055
9079 800 0.826266
8939 2887 0.564652
12670 15887 0.304104
18203 13384 0.733043
4662 4688 0.630689
18512 2436 0.747545
9677 14812 0.927912
4634 4275 0.243907
2845 12727 0.416771
16732 7701 0.52761
9720 6434 0.725843
7516 7592 0.087573
3092 9975 0.74858
18886 5703 0.343296
9636 18761 0.523463
16392 12900 0.0483818
12371 5718 0.153878
1428 12567 0.450964
17342 4651 0.44134
2247 14182 0.912625
7516 5137 0.237867
4628 4557 0.702179
15073 2322 0.229057
12074 5485 0.670039
1620 6538 0.967138
570 17223 0.709612
4955 3635 0.639353
17559 9838 0.436384
10789 7806 0.800669
4499 10988 0.378003
6345 4206 0.0338934
9766 6832 0.337431
12107 11640 0.571955
7645 11076 0.54252
249 4503 0.792892
18443 10147 0.00209246
8251 6083 0.870955
9622 19681 0.966232
408 14866 0.947337
10474 17917 0.592977
17879 1907 0.62241
1422 7041 0.497281
19810 2911 0.0736723
3701 15629 0.57701
12346 12597 0.0123312
1606 5055 0.08277
3280 4856 0.568627
1781 7878 0.199477
5889 622 0.609513
12594 9825 0.97068
6571 2169 0.625251
9908 3590 0.903347
2662 11973 0.132806
1441 10385 0.647622
12199 8498 0.903947
866 12402 0.541016
9091 2281 0.197092
9553 7125 0.310552
5559 11723 0.818326
2822 10769 0.602229
11928 6458 0.0392543
14532 14681 0.599736
5328 3556 0.0327923
4050 8395 0.736583
10539 18636 0.161763
2853 15134 0.292142
5789 6810 0.955253
2858 1190 0.693083
8815 2207 0.0487805
4287 4691 0.800236
14923 9822 0.86728
10541 11052 0.479556
6678 17732 0.105927
9780 11020 0.178693
7890 941 0.491627
3855 19133 0.138935
17817 14764 0.669608
11415 4911 0.94475
1767 4563 0.145344
18757 1841 0.0378071
7256 6416 0.624177
9728 6967 0.495827
15241 744 0.396336
14024 6892 0.876505
6934 2494 0.707789
13769 13171 0.246697
17645 14823 0.208336
7698 11446 0.440436
16058 4780 0.837332
4264 2668 0.580147
11989 4035 0.408441
12485 15714 0.956282
817 1551 0.938387
9491 9621 0.447587
2629 17817 0.295856
16391 7004 0.211766
10498 3932 0.926583
479 1283 0.410944
3852 10776 0.441042
8603 19627 0.25808
4908 1056 0.686932
1851 4689 0.883861
12155 7864 0.269505
15013 8438 0.363787
5914 19191 0.480648
12224 3965 0.571167
6775 5871 0.376897
7492 18895 0.387579
16603 7124 0.981293
7309 4056 0.294732
18183 13412 0.463887
1609 13255 0.125708
19905 13047 0.166769
92 5516 0.882316
11630 947 0.722207
10967 10277 0.805339
6786 13336 0.569568
5670 12510 0.664217
2597 11212 0.747545
3416 8546 0.601403
12987 3318 0.365658
2315 15308 0.966604
14239 3687 0.716348
1702 3425 0.858688
4496 1219 0.66281
9777 10208 0.673795
10568 14800 0.505594
2796 365 0.299636
5075 5387 0.037161
842 9925 0.10789
9174 19832 0.402523
6721 8541 0.233446
9026 13421 0.774724
19849 2211 0.110969
11800 12607 0.188499
2619 16089 0.976006
1523 8194 0.709916
16448 17631 0.229556
8480 13436 0.809906
1694 5661 0.0874018
8032 4256 0.482123
11236 8529 0.458161
4230 1449 0.326278
9097 7587 0.266551
15422 6432 0.856972
3542 18124 0.63784
2832 15265 0.276218
11925 19786 0.317013
12294 19115 0.69918
5080 18448 0.00796489
2272 1781 0.140563
2594 14560 0.206164
3650 8500 0.994182
11126 5413 0.812313
22 15631 0.64993
16146 16029 0.0411091
18596 4771 0.511525
9925 4823 0.427905
6332 7840 0.147473
11268 13896 0.866724
10782 13099 0.377784
12458 4183 0.0148437
14757 6560 0.250048
18134 1883 0.667584
1792 13710 0.925049
3764 15648 0.843159
6048 8149 0.263218
1983 12155 0.342625
8769 5774 0.0844744
17835 7060 0.695134
8323 9796 0.643426
6177 6867 0.735703
3129 2759 0.13075
11107 1523 0.494151
4438 8605 0.3354
14867 12996 0.153765
18567 7331 0.778161
8238 18368 0.226352
4052 10174 0.416127
8384 13307 0.719345
12704 119 0.385701
11120 17728 0.900833
8990 12316 0.863272
6684 8149 0.853464
6255 8662 0.434086
639 2069 0.931686
10335 6542 0.626532
7169 2623 0.059836
5236 14891 0.316428
3137 3069 0.293758
9418 8821 0.783984
19413 11097 0.887519
3862 237 0.23033
4173 17957 0.45247
16651 14642 0.293049
3887 1651 0.831433
380 10533 0.253562
5076 2212 0.431658
7361 18729 0.134768
6176 17904 0.439053
7582 6792 0.884811
12149 10932 0.749287
8110 7401 0.0960874
1117 9193 0.830385
16672 14339 0.632842
5933 11443 0.0767142
13090 4567 0.243572
13292 18399 0.280694
7841 6784 0.0256863
8012 3523 0.971609
3561 12988 0.0603525
13948 5912 0.449758
18093 781 0.0460924
5616 2651 0.196086
1862 367 0.316479
6355 12590 0.867071
2921 7276 0.973454
4401 2121 0.575626
10882 2879 0.0351542
815 3533 0.74874
3557 14229 0.351125
12158 8102 0.0844277
4692 17959 0.0316963
5931 9065 0.693991
17386 1207 0.317142
4655 3884 0.38535
12422 12879 0.766929
1764 8134 0.310955
12979 7839 0.260474
1170 3941 0.311521
9559 5494 0.320996
8356 2284 0.275549
6583 19184 0.346669
14679 1140 0.682082
15378 2820 0.652377
4632 10292 0.261104
12609 19345 0.442746
12058 12033 0.418148
5492 10544 0.951863
7941 3619 0.84572
10800 13112 0.0522393
668 1593 0.530876
7534 10424 0.0471724
19278 5871 0.0674687
6528 13067 0.125025
11712 10426 0.718791
9750 8685 0.487733
9790 3999 0.268646
8430 270 0.910786
17292 9008 0.49806
14048 17607 0.345056
19629 1287 0.0693761
14364 7672 0.35246
5753 16336 0.164534
7111 8748 0.686527
11065 17844 0.906949
5638 17318 0.305339
15719 11553 0.435175
14346 11708 0.613618
4011 10446 0.595793
4819 10979 0.259398
375 16576 0.511181
8677 19677 0.260395
7664 8155 0.476829
11505 5915 0.0866327
2088 11331 0.513033
4743 17980 0.804413
5559 1298 0.184197
10763 6986 0.740973
16860 19445 0.747731
13747 2543 0.0731805
15142 11594 0.549353
8557 10349 0.341595
12164 4149 0.497096
5042 8317 0.578672
7172 10686 0.256052
10773 16249 0.355381
1569 11075 0.129564
3386 12351 0.00637703
7225 6265 0.0628806
12845 5351 0.943112
9546 10908 0.815962
1310 7917 0.130711
662 3212 0.683634
7385 12557 0.473283
7337 18290 0.25892
8589 14552 0.324256
5647 16430 0.392152
8441 13509 0.810288
1752 157 0.145202
1467 6345 0.533017
11 19756 0.530851
545 12484 0.19775
11428 16350 0.662199
5631 4540 0.469168
6776 8063 0.35797
12200 932 0.57538
8340 12236 0.178019
2464 5790 0.00667754
5954 101 0.499627
760 4597 0.0891652
6956 6718 0.485055
4083 17183 0.664937
3316 55 0.576115
3778 18690 0.960321
15301 11892 0.073729
4133 2115 0.75357
10872 7871 0.921704
763 17518 0.672647
10397 708 0.76565
9828 12458 0.550039
134 4405 0.979747
14453 9727 0.952174
7019 1583 0.66034
1186 10914 0.681666
8838 6838 0.162188
1864 4967 0.776511
18200 11974 0.533952
11826 1809 0.117236
9701 7359 0.943886
16466 1390 0.56959
8895 15007 0.494336
10935 1051 0.533417
7445 1397 0.747432
1769 3700 0.936706
1348 10160 0.138242
9333 12433 0.729623
3060 15462 0.661944
14039 8318 0.264712
16949 15314 0.16269
9597 14728 0.194232
8323 6725 0.683634
12576 2043 0.31447
4725 7446 0.634962
5757 11172 0.462792
16616 15196 0.167253
12181 3961 0.714211
17797 7115 0.72194
10625 15976 0.908628
10552 4633 0.0511805
5721 6433 0.401173
19258 3426 0.0489753
19759 12469 0.467718
15444 9784 0.517586
14989 4216 0.830149
5111 9254 0.887553
9 11697 0.951282
18670 5294 0.132104
2116 13306 0.320734
1913 18061 0.637777
8042 7418 0.495983
3042 1892 0.112788
13503 516 0.971908
13270 1990 0.425604
5557 293 0.554739
14695 6175 0.842895
14117 10946 0.0769712
18004 18129 0.22396
16141 3151 0.546104
5748 10070 0.62083
13113 7312 0.357089
1166 2925 0.911813
10319 9743 0.995448
10984 7938 0.895142
12114 5840 0.514491
9892 8259 0.257047
3931 7301 0.784792
18587 19673 0.376351
9518 10206 0.717714
2303 470 0.985395
1466 9060 0.481878
7006 18929 0.0934717
109 7475 0.969638
7764 14015 0.799428
17159 5730 0.168986
1316 1455 0.52835
10867 5265 0.768985
668 10446 0.290869
10277 15525 0.0513326
7191 19515 0.747044
14460 15721 0.0663865
19179 11288 0.0795595
4628 3430 0.378975
15937 618 0.0915122
10898 19771 0.195552
15818 11573 0.0841653
416 16602 0.713901
6910 13585 0.639572
10233 4626 0.680517
2795 2480 0.828866
11399 16072 0.390489
8371 16671 0.250006
17517 18573 0.175506
11152 11827 0.37996
15321 7794 0.0442771
13518 13173 0.354807
18357 6044 0.541073
3200 9483 0.701317
3992 12839 0.812947
7436 5071 0.961408
6033 17758 0.816816
1416 6857 0.861052
7439 9767 0.869567
16130 4765 0.898339
11055 16749 0.491918
8827 6569 0.422372
14562 5271 0.140989
18332 13505 0.893222
6885 12564 0.835715
9857 3402 0.0395261
6613 8845 0.910906
13435 1586 0.771646
18332 17773 0.382669
127 10238 0.528134
7383 11095 0.296706
11127 7650 0.451039
4755 6188 0.748747
1408 5488 0.949729
1317 2251 0.238361
19954 3296 0.889828
4584 5658 0.0619149
8717 12305 0.376282
3561 12666 0.737583
19949 567 0.953912
8296 15286 0.853476
13955 4390 0.759235
1628 7945 0.624869
778 8054 0.0197834
8533 737 0.7031
6720 2533 0.62083
7475 4511 0.562669
12420 2545 0.383374
11640 10627 0.918173
14915 8504 0.769421
10035 9861 0.242551
10778 1463 0.19046
5575 13107 0.29784
18031 3175 0.516361
11303 17676 0.257657
6263 17957 0.366252
3886 5028 0.165648
8302 11483 0.240376
17117 7809 0.875029
3915 6114 0.250048
8062 7624 0.0338147
12208 19545 0.42831
10516 12468 0.0497547
10416 16596 0.561595
13017 1594 0.125423
17042 6822 0.548665
4733 10677 0.714495
15697 8597 0.737687
14499 8502 0.475007
7958 4417 0.411106
15783 1820 0.658196
825 10172 0.302266
16742 7859 0.231066
11124 10545 0.265443
11701 2672 0.922496
9356 11421 0.394052
10048 18701 0.0233137
5313 3196 0.589947
11876 9248 0.601334
16915 5146 0.671895
6341 10502 0.437992
11720 302 0.619316
9036 11007 0.123283
18581 11514 0.98591
11495 3147 0.104549
11395 2520 0.529969
13858 658 0.950215
3251 8319 0.00292549
8781 3054 0.00107787
10529 603 0.9275
14108 12419 0.720838
11143 14577 0.396734
17862 16871 0.0142036
2571 9135 0.124198
17500 1468 0.843684
2476 3390 0.576283
8285 803 0.858013
10700 2026 0.966265
12577 2186 0.164636
13210 19508 0.611806
4970 8198 0.17999
11696 10845 0.12367
17879 6606 0.104522
11201 10370 0.818519
9805 4130 0.515411
10521 17122 0.236043
9289 6600 0.545179
11850 1858 0.839569
9022 4812 0.105691
5376 15787 0.952891
538 5253 0.103209
14611 269 0.697537
579 2595 0.627631
3775 4192 0.469601
325 17285 0.940543
15955 15780 0.986011
5669 1034 0.968359
1066 3191 0.787213
13260 8463 0.859518
1025 5961 0.947038
11271 7095 0.479395
5315 3201 0.283496
7192 10724 0.71673
2771 15637 0.57703
8692 4759 0.645381
646 10839 0.418898
10007 3140 0.00229438
16384 3336 0.0896967
4375 6112 0.874688
2966 6809 0.42664
11369 389 0.842813
12942 2713 0.903912
7739 5342 0.91649
6528 15780 0.135856
5355 5271 0.705396
17616 5513 0.747523
7209 15440 0.0316184
3475 17718 0.694463
18496 2854 0.24453
4560 7901 0.979418
18324 1494 0.299523
10202 1426 0.96684
14731 3932 0.864459
3355 19095 0.754392
3594 5662 0.30597
5950 5832 0.777083
8894 4663 0.526212
233 15234 0.375445
18997 14935 0.07443
2378 9969 0.250175
8394 3733 0.966235
19052 1675 0.309153
1861 2321 0.619474
16347 11766 0.996619
2996 6614 0.0146415
9581 6112 0.681057
4813 6300 0.203783
1296 8005 0.648299
1144 10303 0.940394
9105 12711 0.840389
1346 17016 0.827989
3636 10947 0.467354
3242 11113 0.615073
7211 3532 0.835345
8858 3630 0.626692
6304 9425 0.0858737
10029 10561 0.997972
18935 11072 0.411859
4603 10107 0.587281
7099 8037 0.229331
6087 2702 0.674207
244 11201 0.434
8944 18333 0.992439
11472 7417 0.688947
11032 15754 0.811554
7986 8633 0.0679006
5527 12545 0.429415
15914 6850 0.176722
10304 6066 0.167995
17169 10250 0.910906
13685 7070 0.0876924
9442 2710 0.17731
9685 18141 0.89637
6783 8520 0.182988
6007 1944 0.260354
10391 7966 0.730986
4618 5722 0.576614
8654 6887 0.310591
18141 14459 0.963357
6933 5895 0.860761
554 6145 0.401162
5224 13497 0.875516
10835 9361 0.692495
5027 11838 0.978071
9082 5632 0.204345
6776 17314 0.326701
14573 2483 0.524835
15584 9553 0.764151
5962 8341 0.123133
16338 150 0.296784
1512 8756 0.704569
11653 2356 0.820136
1 528 0.291435
6157 3411 0.392988
14356 10485 0.878396
3191 682 0.556285
11833 17026 0.397615
5101 10119 0.0150504
9065 4059 0.232028
8534 12524 0.797475
6389 12198 0.331837
3300 5071 0.7084
10098 2563 0.806459
18308 12128 0.603264
10953 328 0.216379
11283 10707 0.726365
15699 3874 0.38407
9237 10252 0.276011
8841 14889 0.870636
17118 10276 0.649637
8902 8443 0.944337
9081 9649 0.982352
11095 2661 0.642516
9865 5898 0.824734
16497 11681 0.957451
13985 8542 0.296022
10274 15908 0.210458
3898 12487 0.178651
9548 4949 0.342033
11706 12147 0.765088
873 6570 0.508362
5311 1458 0.37071
6604 5590 0.724756
1421 3653 0.693245
8031 10469 0.0325469
97 2078 0.498858
5472 337 0.244703
8216 5243 0.599385
12528 9518 0.732058
11218 8342 0.169189
5614 19654 0.723862
6275 18343 0.160232
7290 8638 0.585563
10100 17073 0.545758
2855 13955 0.790399
15573 1266 0.140373
12656 5687 0.229759
5747 7361 0.941879
19056 5153 0.414113
6146 18077 0.182969
18452 10641 0.00744116
8796 3970 0.11595
8514 7290 0.599026
15485 8037 0.899098
2866 7403 0.308293
15052 7783 0.865027
6019 6984 0.77527
1082 218 0.393815
2758 6323 0.343527
2428 15885 0.990093
13532 4016 0.871354
11262 1132 0.658967
230 3230 0.580816
14417 3182 0.79483
12331 1749 0.7721
4999 8505 0.948258
6671 6256 0.643076
1180 12580 0.480604
13951 13248 0.538395
5466 8963 0.774577
15365 19111 0.0527405
11126 8522 0.11482
12131 5543 0.0350307
5919 5271 0.838362
18737 12235 0.365323
14171 16688 0.560828
7084 9119 0.822158
6217 18187 0.440788
12373 13376 0.127314
8712 4238 0.53855
4906 19048 0.547647
4516 13270 0.376211
1215 13248 0.233064
10658 8390 0.11637
2893 11298 0.649959
6956 2909 0.975245
13068 5734 0.207418
4808 608 0.0212708
18723 11386 0.20132
10679 13816 0.834598
17923 1924 0.568422
19956 13265 0.902329
560 621 0.913211
8829 14852 0.617201
19406 8786 0.440924
13004 2558 0.477386
8387 12561 0.138242
7610 15401 0.594518
4714 1445 0.115054
6012 258 0.135467
12339 9073 0.169086
9967 17984 0.308518
4038 7839 0.681862
583 4987 0.117118
6437 4497 0.535352
19744 10491 0.159938
2370 17208 0.398464
9264 19731 0.542213
9142 11055 0.486702
4597 18581 0.535661
6089 10538 0.589856
12682 17089 0.632917
2027 5535 0.250338
9010 2421 0.90903
3179 3237 0.292014
15863 3500 0.475521
7169 4151 0.362749
3781 6626 0.325454
379 3114 0.840446
4050 5394 0.0685506
6487 7565 0.930722
1056 18101 0.244668
4431 4208 0.965425
9880 19303 0.380468
14006 3250 0.82195
1645 579 0.948903
10381 4417 0.708205
9822 7154 0.203291
4172 6377 0.29731
5814 10909 0.704146
10265 766 0.8422
2629 19173 0.767992
11133 12103 0.258241
7610 4973 0.986766
13853 15572 0.248453
3053 3070 0.848133
7498 9885 0.0267043
7817 10456 0.730634
3135 9303 0.386228
19667 19933 0.179767
35 7431 0.645601
13225 12214 0.627156
1343 2758 0.0305242
9070 12123 0.1461
1317 12795 0.770431
6250 8927 0.00637703
2313 11915 0.00497729
2630 4237 0.110573
17981 13216 0.472208
527 18289 0.145556
1556 13483 0.712117
16245 4087 0.881034
9804 18792 0.623841
11437 8181 0.0277021
5886 5423 0.146475
13608 15231 0.240779
5972 2239 0.749461
6103 11371 0.87834
11083 4956 0.45683
9659 11696 0.364901
9182 10070 0.0205846
12056 12179 0.330838
17353 189 0.773606
5991 10146 0.947007
10591 7029 0.819483
11172 16539 0.907205
4226 5863 0.830819
7172 1215 0.0331522
2997 3826 0.171868
15414 5718 0.421287
8316 11697 0.200243
10898 846 0.514141
8983 14994 0.638162
13470 5697 0.242906
11908 1821 0.499871
10877 2464 0.559142
8740 4238 0.582054
11965 897 0.842584
952 9542 0.332807
10230 1210 0.598056
5940 10765 0.60629
1395 14496 0.231958
10938 3780 0.182408
9131 11407 0.816935
472 15947 0.634846
9405 7614 0.408178
15017 6140 0.660607
14121 5914 0.73181
19730 4212 0.304026
17202 6771 0.292815
3979 10106 0.25975
18301 7461 0.741895
2209 6768 0.30764
398 13335 0.00225972
4916 5848 0.981682
9091 3167 0.643536
16268 6547 0.0956981
8667 19704 0.329756
13743 9977 0.542213
17055 7704 0.826297
4318 7237 0.860806
8702 17535 0.856648
19818 643 0.287505
18869 1999 0.549944
9907 17902 0.962043
6011 1289 0.224118
6031 17681 0.726618
8099 13766 0.835403
6444 19143 0.317819
13086 12556 0.484698
8085 538 0.0639408
11804 18962 0.821097
11004 7710 0.842397
259 1244 0.68545
8923 19959 0.902183
5052 7109 0.709662
1381 8997 0.056973
1354 5803 0.599535
5390 19533 0.346672
5208 9561 0.237633
4753 7162 0.370377
16583 5269 0.429003
16582 7200 0.604545
8875 2967 0.779495
3604 485 0.293592
7814 10587 0.0232846
15610 1441 0.815896
2225 12146 0.0116219
10274 8732 0.0358201
10761 19542 0.0317174
8448 10254 0.142481
323 1038 0.7579
14507 3297 0.656167
6718 18693 0.671992
19348 230 0.521027
4827 1854 0.53917
9088 16000 0.731802
13733 19703 0.767096
11608 12469 0.00325722
5690 5199 0.804488
18757 2117 0.0358548
629 11426 0.925425
10881 4786 0.461346
16486 4143 0.969353
8000 16117 0.328287
13792 3333 0.625595
11503 5983 0.60335
6451 2753 0.0886341
8248 7798 0.808348
5844 15334 0.978246
6097 4302 0.907176
3162 1309 0.988088
12830 1216 0.458713
1775 6078 0.926583
7021 11511 0.136987
11579 8495 0.757543
4905 4524 0.534612
15962 7426 0.233807
7889 771 0.361387
17304 9093 0.3536
3199 9717 0.54681
11108 1970 0.477365
5705 2965 0.845205
3800 4660 0.159274
5651 7826 0.635981
7941 8411 0.58969
12055 1710 0.0146138
5462 15297 0.269966
3704 1389 0.387766
5904 11264 0.338151
16757 11135 0.416575
14110 11852 0.995963
11674 154 0.240849
3746 9894 0.66694
6636 8121 0.824887
15295 5925 0.677141
1648 256 0.942525
9905 15554 0.31351
7710 4844 0.516061
2287 8341 0.192408
12607 1229 0.520651
17701 6771 0.603659
7388 14338 0.35138
2698 4987 0.171486
1509 4275 0.714451
591 13805 0.982837
16820 10365 0.513047
7927 2024 0.396541
1751 7675 0.972622
9940 16005 0.941793
6906 4159 0.792257
10002 7215 0.318112
14496 11811 0.901692
4249 13204 0.990911
7789 6698 0.497245
3648 8639 0.457086
4229 10891 0.43986
8569 7446 0.17817
7231 5147 0.611536
7054 8423 0.469701
8606 8531 0.180178
8229 11909 0.178968
18396 7633 0.336315
10309 3195 0.748843
9539 7776 0.140439
5502 12197 0.938887
896 130 0.464707
18928 12258 0.334875
10874 10638 0.634962
13623 18695 0.725877
2465 2940 0.62672
1 19002 0.894706
13005 14654 0.117154
12197 4624 0.686178
9841 18606 0.944164
7527 3001 0.293367
18131 11481 0.0760963
9680 9724 0.101335
8696 11575 0.619683
8021 11821 0.428944
1853 19578 0.540628
10230 2635 0.165648
15861 10697 0.0961235
14890 11601 0.0462887
1367 14687 0.631394
12195 7513 0.240068
7650 7548 0.695557
1134 8024 0.273861
16592 5465 0.262081
10000 841 0.737583
11978 81 0.338919
7315 11181 0.061854
4714 2414 0.968302
4366 9671 0.67155
5137 2343 0.643432
4664 9286 0.996178
8644 350 0.352121
9422 755 0.999998
5303 4413 0.92648
7077 9772 0.173712
9164 4178 0.659113
12008 4800 0.617667
6508 6872 0.200301
5152 3619 0.0588298
12284 4591 0.574456
4061 11617 0.334129
18603 13921 0.93746
12224 8715 0.68112
9554 8407 0.282595
6379 792 0.959874
9427 7707 0.824409
7335 11189 0.843152
8555 599 0.732513
6507 12308 0.909846
12331 1890 0.488943
955 8455 0.990205
18309 1213 0.879476
2091 13315 0.944073
9766 699 0.988733
1242 10510 0.330697
12485 6471 0.745118
8374 6768 0.451589
18013 11916 0.654562
8681 8965 0.182391
307 18260 0.857285
10622 2591 0.315935
4215 744 0.442121
15289 6973 0.0205763
3324 9511 0.295902
16235 2939 0.866399
16892 10615 0.522025
14937 10484 0.352104
17655 12714 0.166848
7556 18235 0.435793
12283 2450 0.605923
6824 14396 0.103637
1218 1181 0.0324248
9916 12459 0.96472
10619 17239 0.772793
11101 3601 0.0123312
6190 6709 0.616481
10074 7219 0.569289
9805 11067 0.0526495
13706 1184 0.113017
12449 5424 0.237175
6804 105 0.713901
5776 3756 0.245017
19887 6978 0.13976
7513 12559 0.793681
365 4766 0.842888
13366 1955 0.340534
11506 17081 0.819379
3029 17141 0.261684
2570 9823 0.428848
2966 14952 0.366091
2173 4499 0.124916
9904 1339 0.670999
7761 11808 0.334313
6245 5910 0.577008
2533 3692 0.6651
18535 6571 0.0137881
19614 1261 0.846836
2161 17927 0.140061
162 9654 0.201472
19029 9293 0.701266
1402 14132 0.685673
15118 12478 0.676638
624 9214 0.552727
12479 6552 0.198089
480 6569 0.187775
8386 15015 0.4356
13505 18374 0.491009
1272 885 0.900433
8898 8373 0.139048
2000 4598 0.937502
5747 4564 0.285062
9139 3607 0.492382
1692 12060 0.613744
19802 3548 0.536366
2397 10514 0.493535
3237 7802 0.925049
8644 17810 0.338017
4675 7901 0.289209
10322 316 0.029242
12352 7445 0.498704
5130 11076 0.308444
11925 5932 0.879569
11161 7395 0.576381
8575 2503 0.308277
810 2070 0.833935
8115 15271 0.482358
11851 12821 0.0770671
4133 8991 0.250457
14982 9213 0.617108
17093 10409 0.200243
9902 10460 0.471401
4554 5985 0.204345
5410 9376 0.0358201
11707 406 0.765512
5576 3858 0.472134
8862 1659 0.366553
4868 407 0.0183591
10740 319 0.0205733
6273 13986 0.663558
17996 10681 0.275507
6483 2300 0.220673
3847 5018 0.842372
1663 11229 0.285345
12230 1162 0.457169
1077 629 0.235233
7973 18166 0.506309
3861 464 0.277901
5186 10103 0.182604
1719 541 0.453182
1903 12978 0.482645
470 14217 0.0217034
6993 6698 0.505903
7608 11096 0.719331
1350 11438 0.519075
3606 5768 0.428064
860 3851 0.323482
7572 15086 0.91573
10088 5862 0.803761
6129 6272 0.938926
2048 10932 0.493028
4673 18860 0.354315
7292 11413 0.473941
5872 7187 0.669954
13621 15867 0.413298
7884 2326 0.0559266
11853 15969 0.0950994
8240 1446 0.211915
11114 6214 0.985396
17587 15711 0.947175
7775 3328 0.970883
10945 8686 0.516331
17005 4977 0.0760599
4810 8550 0.513076
4999 10076 0.346938
134 954 0.263996
11045 3801 0.434944
5222 19648 0.114388
16464 8312 0.291178
13028 10046 0.570766
9314 11932 0.368419
5209 2122 0.220281
4064 381 0.373319
3950 5822 0.348554
9754 929 0.107405
12642 11443 0.297153
1431 5682 0.815433
11249 5727 0.390362
5683 4972 0.771313
8312 6773 0.968061
11895 6291 0.555334
6369 1034 0.0663915
2888 13444 0.107677
15377 1643 0.776344
9076 1945 0.395707
16445 6311 0.501153
6703 7253 0.12588
7692 11538 0.399473
1369 1406 0.488623
107 19848 0.835439
6350 360 0.142149
3159 15944 0.895026
9586 8139 0.0832414
795 2522 0.296866
13564 12208 0.560207
18794 6157 0.248846
7812 957 0.2459
8029 1825 0.126741
432 382 0.883306
5354 7173 0.058507
5549 11193 0.994131
5534 15459 0.230855
6977 19510 0.293971
358 5689 0.0199358
8692 4564 0.76938
1986 3943 0.102858
12132 15862 0.355733
8245 1936 0.329684
465 8061 0.993948
18979 15853 0.414908
9968 7555 0.826979
12339 10837 0.586848
12071 2983 0.0865449
6265 17916 0.900372
6275 676 0.626029
2301 19322 0.734944
18052 9190 0.666502
18982 7958 0.424117
18 6696 0.602728
16303 5260 0.374294
2392 10574 0.546104
5986 18531 0.0392543
846 10647 0.446892
4353 747 0.416467
1560 1141 0.138307
1774 3956 0.134987
8528 15494 0.280271
3031 4690 0.340214
15774 16425 0.591357
18365 3860 0.606893
6622 17619 0.238124
8738 8516 0.889532
1573 18524 0.581493
6880 19021 0.841305
2938 3245 0.0680706
2074 8287 0.810995
6707 1511 0.372623
6568 2353 0.940978
5555 4413 0.33637
1011 15995 0.794527
2373 1567 0.159563
4693 13698 0.947037
5887 19944 0.793489
336 17057 0.174999
13968 5288 0.209523
9901 9903 0.324795
6285 18548 0.545758
6573 4144 0.683077
1210 8251 0.0127399
7717 2373 0.285966
12037 5572 0.190212
10393 9782 0.535963
13628 2930 0.244703
8168 4963 0.930823
568 1290 0.474001
11886 1721 0.610706
435 10838 0.315935
11124 10948 0.971292
11476 7755 0.365686
16972 8531 0.170397
7971 12573 0.690256
9859 9937 0.0752507
9346 12670 0.00971926
15745 18089 0.641623
1556 6612 0.0620783
14983 1396 0.843347
11607 17216 0.946557
14500 12677 0.528077
9399 6567 0.312705
6639 10587 0.443415
5707 10257 0.302816
3214 18587 0.41984
14287 12667 0.895849
6883 13681 0.899312
9568 9551 0.636531
11127 1794 0.837595
11572 14828 0.1899
9662 16159 0.229266
5094 16689 0.866426
2978 11014 0.361842
9732 1946 0.0502609
1388 10925 0.848793
3713 2840 0.807689
11598 1739 0.996873
2977 10702 0.0966544
7113 9407 0.392174
11730 4547 0.346837
12034 10732 0.958983
16580 6165 0.178263
8960 18481 0.971001
10909 12861 0.869567
3644 3238 0.583575
19595 12014 0.366956
8937 7311 0.423198
6083 10943 0.93022
5288 13296 0.220592
19643 9329 0.661426
5783 11892 0.275835
3206 13891 0.351314
2062 4947 0.72827
17595 5499 0.890284
6684 8086 0.563442
18824 4621 0.863725
8539 17537 0.667432
1967 9309 0.0363497
16622 1378 0.58969
5244 16267 0.388105
14715 16618 0.0291084
14012 5607 0.959867
6735 16955 0.925889
7595 2307 0.0709264
11841 8649 0.334037
8154 4836 0.12427
5298 11464 0.391775
9952 13120 0.334423
18190 4839 0.524487
1419 17792 0.557735
14744 8042 0.34951
19745 15649 0.15212
18472 11048 0.353916
17606 1050 0.692562
17240 12006 0.271655
5690 12642 0.0994807
7184 3828 0.511304
19380 12742 0.151862
1378 4495 0.635512
10436 858 0.237363
6561 15176 0.848362
4789 12335 0.659614
689 19465 0.22711
525 8777 0.414576
10916 1679 0.226908
1935 17028 0.664627
1011 1526 0.198959
2125 546 0.267167
9646 8262 0.024307
8637 818 0.041076
17052 7300 0.147493
7316 1172 0.0403376
6297 3173 0.337525
15825 12016 0.699669
15758 15119 0.672269
6741 4890 0.664717
15418 273 0.830646
4619 591 0.0175257
10744 12487 0.827446
2803 3489 0.439835
19569 3982 0.600643
17683 11300 0.182803
12424 3602 0.265285
1009 19750 0.227354
2161 12953 0.107906
7183 10794 0.371437
2013 8619 0.740363
10793 31 0.347549
8842 1224 0.329733
1310 8467 0.66217
9840 7779 0.902183
3241 10226 0.919882
3615 16906 0.921632
3467 7018 0.78455
763 16282 0.833115
10315 1754 0.292995
8036 4034 0.247722
12837 2968 0.360888
4292 13530 0.990062
15075 10023 0.585651
5341 14510 0.0999567
16348 417 0.277554
19868 6982 0.729057
9593 12236 0.252255
312 10210 0.204775
4648 366 0.146718
1329 801 0.343527
793 5646 0.47173
2606 19058 0.732085
4633 1949 0.784766
1434 14458 0.0265812
6768 3896 0.779898
14774 15118 0.915277
10420 9835 0.589207
15761 4522 0.340534
7722 6166 0.63915
8762 139 0.254185
7692 1863 0.95751
12271 9667 0.719551
13505 2360 0.411642
17389 356 0.559578
2311 1858 0.903148
11262 11625 0.957907
5221 1758 0.603709
6901 16161 0.693496
11152 2045 0.873406
11412 2047 0.863651
6660 12628 0.93998
11863 1875 0.491006
6314 17302 0.958983
8562 3104 0.319293
2930 12166 0.76936
1354 8122 0.44696
622 7078 0.139358
18995 9755 0.496101
6054 4683 0.910423
86 12673 0.449475
12440 5388 0.338957
4451 5246 0.933795
6890 3823 0.624457
9663 6401 0.155763
8408 7341 0.547295
9119 13973 0.897551
9997 1646 0.998575
9223 13806 0.431528
5252 463 0.605228
7678 2227 0.233902
6278 1882 0.847745
4996 15811 0.53805
16380 1161 0.855819
4166 4109 0.981533
17393 6384 0.48721
14051 329 0.205142
15048 5568 0.0410427
315 1086 0.888189
12535 822 0.983598
7450 16697 0.0382582
9961 9207 0.267739
10126 5250 0.949362
572 12741 0.294541
3341 18034 0.495992
3370 5953 0.135244
1685 17488 0.795882
3049 251 0.153952
9546 11887 0.450268
90 5525 0.688306
7995 900 0.792402
6601 4831 0.182388
7748 3797 0.709243
3251 5431 0.401214
4834 10512 0.541015
17855 2338 0.864808
9608 4123 0.636039
9396 17348 0.896139
3245 4291 0.589825
9225 3804 0.954926
4862 16933 0.703763
2041 11062 0.0979736
5194 7352 0.365516
3039 10058 0.0467093
8610 13854 0.737598
9390 7132 0.892447
11562 14733 0.840389
8770 17713 0.769151
1178 8457 0.8239
3111 10105 0.998462
10379 833 0.458844
13730 3746 0.884468
14501 4828 0.368033
18094 1552 0.73965
13822 14192 0.0948885
3844 14027 0.119929
11643 1916 0.515859
12424 15593 0.563952
3462 1589 0.932506
1071 2441 0.842397
4057 4130 0.222288
3811 7404 0.0220961
15748 7572 0.372086
16609 12427 0.394199
11566 8581 0.990411
12242 7935 0.729666
2431 7906 0.803473
7786 14056 0.0850227
6357 15520 0.883316
3339 3098 0.799412
10783 19672 0.778378
11667 2410 0.299055
6864 5265 0.279391
2486 193 0.77526
4696 15356 0.131159
605 4599 0.119359
6196 9988 0.217618
2609 6183 0.234395
8104 2581 0.293389
3160 12664 0.549799
5299 1931 0.014664
8103 9574 0.0845657
9360 4940 0.975518
16925 9033 0.470706
13472 7018 0.221727
783 16494 0.0518953
363 5251 0.251673
882 4761 0.800913
2228 16453 0.227306
2695 9989 0.802293
11265 3459 0.203941
9484 10706 0.941768
1675 11925 0.384544
159 996 0.689829
9276 1996 0.238613
9084 6780 0.0769196
18287 18895 0.334127
15271 332 0.0750526
19956 16559 0.00900308
11858 4433 0.632566
2917 12490 0.479638
11204 19768 0.49428
3048 10475 0.961627
10515 15118 0.111712
8694 1666 0.572167
8427 13848 0.83907
3336 6659 0.603555
8764 8018 0.688991
18675 18798 0.851508
13287 7641 0.232855
503 395 0.783788
4047 4213 0.999393
7706 8123 0.999054
18570 16598 0.344282
2919 2402 0.730736
266 1483 0.0581661
878 14486 0.116716
1144 6156 0.0110774
17288 12212 0.886676
9584 2450 0.495988
16200 3009 0.388951
14097 2568 0.701037
14151 11110 0.763364
11787 16993 0.585451
1889 1384 0.925519
2464 6978 0.199108
2460 11684 0.400263
3308 10085 0.495018
1362 3790 0.478418
7744 830 0.660306
19618 12560 0.782182
1701 19722 0.918868
19823 19909 0.186258
10085 7148 0.152486
19665 7258 0.221437
858 10801 0.186178
1929 5289 0.623532
2679 14273 0.378112
4189 3795 0.958554
12901 6745 0.465635
4228 1444 0.0736723
17613 503 0.621648
4107 4247 0.736181
14347 17479 0.0787916
8153 15105 0.769491
7209 11119 0.868455
2599 6485 0.80948
1531 15951 0.17564
18442 6225 0.724755
9737 7361 0.410944
2441 1861 0.313062
16970 3095 0.672061
13422 13940 0.37406
5129 10406 0.932807
1222 10270 0.00298439
11536 7121 0.704203
15313 10531 0.711973
1752 18865 0.386444
11600 12329 0.647876
1579 3485 0.345752
11805 3698 0.013498
17109 12917 0.287405
10141 8312 0.171784
9671 11481 0.778356
17437 18062 0.582333
9875 10713 0.242551
473 990 0.493792
3262 10050 0.405677
736 9716 0.754935
3310 8489 0.731685
11069 14984 0.490131
11146 1025 0.55025
963 10503 0.339959
6463 3771 0.0565741
14649 944 0.698943
5651 6491 0.598938
2031 10110 0.620295
8498 8431 0.676957
19932 13481 0.803712
16944 19248 0.771051
11956 9561 0.418815
8558 14801 0.657276
11288 16069 0.00906557
4848 12361 0.348357
474 2943 0.607923
698 5693 0.402732
2218 6602 0.983837
13323 10633 0.489129
17376 14076 0.447007
19064 6789 0.207436
5844 12889 0.546402
3118 17374 0.680855
9750 11329 0.337516
2088 762 0.647466
10806 14706 0.583318
12667 9991 0.625471
17169 2728 0.720284
9266 18221 0.531563
354 15953 0.266053
120 2544 0.399624
1191 6775 0.204088
10366 18347 0.427111
10339 6506 0.620214
3485 2995 0.791307
7801 11074 0.0317174
4842 15624 0.416632
1690 9451 0.30622
9387 9937 0.992089
4487 16084 0.798913
19432 8294 0.213698
1846 2418 0.463033
8722 18075 0.22123
5770 17027 0.369629
8621 1901 0.715895
1228 12115 0.787086
9687 4489 0.964506
4577 3507 0.994816
8301 9983 0.556922
9371 12471 0.24821
1651 4868 0.823577
7627 8128 0.413051
1808 8573 0.102332
11709 15376 0.0727079
2248 10097 0.875265
10911 8764 0.677913
3936 4622 0.0278941
7792 77 0.514362
1112 415 0.131979
5107 18524 0.713093
2896 13239 0.294591
8919 16282 0.657474
6558 5239 0.924093
2326 7879 0.687563
9821 3192 0.589808
7594 1317 0.34609
8404 15714 0.0441759
1392 7036 0.0228382
5893 7594 0.355763
6380 11409 0.572399
6574 8835 0.103584
7921 2653 0.299506
5947 16958 0.709753
2975 7956 0.276642
15813 17464 0.975741
769 972 0.461574
18126 6415 0.969844
13689 10425 0.221696
5002 19163 0.133507
716 9301 0.182414
19812 6483 0.869857
17816 5348 0.978246
10640 743 0.963202
14469 5732 0.367029
10996 5442 0.959121
12676 616 0.29471
5494 4338 0.469798
12802 897 0.265218
7417 267 0.315598
5444 8234 0.840491
16515 6146 0.413914
15874 1729 0.491393
10977 3367 0.13255
10866 5615 0.0520409
6884 7606 0.733161
13562 10499 0.724445
9536 12662 0.975738
19920 2491 0.0475133
15296 77 0.928669
7361 13425 0.332706
3722 3838 0.0440623
14069 4117 0.754782
15310 11693 0.977965
18933 576 0.204569
3449 9861 0.827303
10782 13511 0.165131
5265 1486 0.763314
4590 1250 0.0548599
6283 4871 0.7084
13713 12205 0.941093
709 16480 0.830623
6905 11874 0.00211757
15882 5327 0.54345
6559 10655 0.535488
4834 14281 0.949087
9075 11404 0.361529
17461 4205 0.842584
5217 12480 0.624236
1724 14075 0.84352
264 14417 0.214459
17374 1488 0.486083
6658 3824 0.448389
2674 5494 0.0326563
7887 11814 0.44055
10496 698 0.141411
2694 12648 0.137739
17000 13454 0.494365
2190 7881 0.818194
11038 206 0.241806
6367 6683 0.670786
3393 5566 0.510454
1718 1503 0.497853
7171 9154 0.364911
8963 10318 0.952648
5557 13456 0.977724
1018 2970 0.660607
5878 2572 0.647497
10702 7961 0.875162
4633 11128 0.429877
13353 482 0.648669
14275 10627 0.126019
2841 10255 0.380494
6326 2083 0.585341
8486 17376 0.41941
4515 7952 0.00746048
7889 2984 0.660716
7221 9722 0.289733
3164 7239 0.846421
5758 3349 0.748251
2157 3203 0.315588
1989 4871 0.573307
8361 9855 0.396541
782 9647 0.903697
6889 4331 0.288402
19980 3832 0.772809
930 11922 0.577444
3444 13484 0.569029
3564 7098 0.110241
11563 3626 0.80716
10841 16225 0.187673
2960 9209 0.608109
11277 2948 0.96443
4357 9947 0.408092
1307 10200 0.94303
8875 3878 0.422313
2743 11156 0.855064
2348 17579 0.276188
6859 9644 0.456409
9231 7718 0.635857
4348 6465 0.165454
4549 12418 0.907717
11434 11849 0.56692
11447 7777 0.334915
872 14675 0.195792
9927 1548 0.837913
5695 9668 0.609485
7540 19804 0.796721
12924 7361 0.268647
6805 10270 0.0477981
18284 4064 0.299353
1559 193 0.817009
5184 10085 0.45986
8837 16822 0.0788337
12168 10486 0.907101
17575 15309 0.946742
8053 1579 0.343881
7989 6920 0.343881
10496 3321 0.01363
14769 10734 0.272157
19410 18150 0.182921
6283 13528 0.942017
5074 15082 0.817732
7643 8964 0.123532
2747 9288 0.0757486
1495 7901 0.532181
19752 6059 0.833935
346 16400 0.224132
7263 14981 0.945219
11218 4710 0.899189
2408 9299 0.239927
4712 8175 0.230983
13911 5931 0.566387
6059 5434 0.329616
6462 9957 0.953767
5377 11407 0.646745
12214 2637 0.25578
7047 8202 0.316178
6926 18571 0.877898
12303 2359 0.130737
5053 940 0.852639
4526 19032 0.826919
18697 12444 0.00511007
2337 6422 0.745011
9869 3459 0.494969
76 8277 0.489609
1950 12917 0.66596
1609 4030 0.711486
2021 17011 0.268973
9456 12703 0.177568
5702 5789 0.684612
16460 11227 0.879821
12089 14869 0.051202
8085 3833 0.220047
3153 8968 0.0982714
8474 11348 0.300798
15888 8417 0.587192
9793 2594 0.0076568
17475 1104 0.760705
10511 8049 0.203983
19415 11723 0.153121
5878 295 0.0932712
13303 9865 0.136825
1954 10306 0.53421
6505 18446 0.130779
3682 8891 0.382436
1597 12750 0.315878
19916 816 0.090759
18660 19408 0.707992
1070 9596 0.876594
5435 7928 0.389983
9169 7551 0.149162
9223 1836 0.780624
414 18150 0.367364
6396 9486 0.134241
7587 8727 0.223856
8558 172 0.364242
12905 12241 0.688991
17904 3812 0.421862
11262 11091 0.984168
818 3338 0.0975432
11637 17212 0.0200456
8468 17398 0.404483
12672 2754 0.606742
14679 1306 0.0950803
18817 18778 0.1854
16330 475 0.5316
1684 925 0.876462
6679 15805 0.248995
17179 1900 0.163817
9986 4413 0.383345
2864 12434 0.624579
4131 9249 0.863646
6903 12715 0.299792
7369 9587 0.131021
17733 15292 0.961198
11464 5826 0.0664457
7224 12343 0.184514
12594 8966 0.895363
10395 19535 0.133953
1950 2687 0.238064
4531 5634 0.863182
11672 11680 0.183289
7392 14265 0.305339
18012 10902 0.0185216
17609 7140 0.293401
12100 2525 0.868434
6547 6428 0.768185
9007 6080 0.23081
6083 9156 0.78558
7041 5205 0.0503648
387 12775 0.0358364
11533 9260 0.998329
1586 8119 0.499998
13730 5563 0.451039
12706 7255 0.731795
2896 10276 0.697825
4499 4386 0.193785
8633 7966 0.36777
1446 5593 0.19848
1786 8355 0.0484771
1608 7007 0.794042
11409 5501 0.548636
9038 510 0.0810012
2727 3738 0.789139
8692 4279 0.275507
1281 2687 0.221515
8313 7300 0.598015
12762 19582 0.310144
313 8324 0.64408
13458 9767 0.236269
15731 112 0.886725
1017 11101 0.716195
3529 3284 0.570725
12808 11274 0.0934168
18948 6869 0.95944
6956 492 0.465489
4023 19680 0.968377
5520 9518 0.115054
5370 17389 0.471146
6515 6888 0.0974779
11532 2670 0.289346
13445 11867 0.363424
1851 6159 0.37064
11322 12114 0.429479
14441 2599 0.466641
8341 8041 0.219914
7731 15019 0.985513
15624 13536 0.867502
17147 1955 0.492668
2086 8843 0.323518
15223 4982 0.231024
2312 4843 0.739001
6187 14225 0.904535
6181 13510 0.849096
8677 13007 0.00832381
10519 5625 0.265626
6833 6934 0.575211
14142 11993 0.295395
3022 4981 0.300474
4779 18466 0.533707
5020 17861 0.996144
4628 3840 0.819483
6288 16189 0.267381
13526 13171 0.0674687
9423 7187 0.0710458
12551 18593 0.488464
14406 3126 0.627552
14517 12759 0.145668
14542 10612 0.921804
10176 15442 0.931783
14581 673 0.530773
8394 6097 0.601381
11791 3992 0.156309
6576 6054 0.595589
9914 3618 0.696735
7344 10312 0.280331
5272 2480 0.954068
5434 9932 0.857005
13263 5262 0.84669
8531 10216 0.130371
8361 15736 0.819834
10699 4248 0.71284
5091 10127 0.0805523
10937 19931 0.76814
16495 789 0.278578
443 7707 0.270999
5559 14604 0.311493
12529 4551 0.970447
6576 422 0.705929
15075 7735 0.972868
10529 19987 0.920768
19933 5591 0.945719
3968 8871 0.91411
7004 18374 0.607867
4073 9441 0.755021
11023 8399 0.470706
11354 11315 0.961272
8035 8961 0.418205
4152 714 0.434236
16739 15917 0.0496176
9980 6931 0.915498
6894 3843 0.0132924
12416 9654 0.738874
12767 12907 0.109903
9253 3682 0.252255
11500 14606 0.394486
9293 12218 0.13713
10525 15701 0.70987
8889 2998 0.590077
4383 9058 0.85648
12307 11187 0.885051
9923 1726 0.441752
923 3335 0.553099
16347 17178 0.691712
17817 11511 0.188313
6099 5686 0.745639
14842 19174 0.377898
3987 1530 0.222353
8151 11756 0.419801
4323 8179 0.632917
7428 3599 0.3952
12260 6877 0.154072
5378 5570 0.87367
5946 10299 0.767257
7697 9335 0.778389
6348 11048 0.250456
2755 1880 0.187578
7527 5647 0.423583
11980 13739 0.66278
8898 5913 0.888272
7178 266 0.781363
11294 9934 0.787755
13559 13809 0.69858
3017 15989 0.639433
3125 5664 0.186274
10220 8518 0.773552
1929 12473 0.631455
15079 6798 0.842584
9633 4416 0.968302
3192 2185 0.699856
5451 5710 0.0930681
2936 1934 0.914609
4801 18750 0.667069
9700 5053 0.154769
4258 12080 0.411311
8485 11521 0.190118
17397 7619 0.843159
12 16040 0.155411
8847 8281 0.343029
5013 14324 0.663634
10039 14640 0.698492
11785 9880 0.05459
8289 17077 0.473826
5558 5879 0.793974
15500 917 0.545509
9482 4837 0.772809
2921 7603 0.0506773
7688 15123 0.556121
3638 11996 0.158469
6483 2939 0.148775
1662 17601 0.484868
3424 6960 0.539897
308 946 0.894263
8535 14425 0.875098
9437 11883 0.346547
11367 19131 0.846163
19757 2533 0.721536
9810 6339 0.482144
3023 3342 0.748701
15737 12304 0.591684
1258 5807 0.67191
8946 11112 0.694075
111 6980 0.642366
11629 17668 0.333877
11718 10178 0.974447
5737 16289 0.605629
6279 18512 0.863651
3919 12110 0.3099
10048 261 0.60952
10043 14573 0.216494
10852 3452 0.104059
14580 10796 0.800669
11073 15746 0.590557
3098 7930 0.506349
16250 3214 0.475128
8482 18301 0.933997
16943 10096 0.396097
5761 152 0.043776
795 19244 0.563628
11403 19961 0.419856
3708 10695 0.12116
614 1677 0.709596
7195 16824 0.709007
9594 10358 0.488659
12630 538 0.937757
6382 15572 0.0464554
5991 12622 0.57684
10504 19133 0.736409
7154 12203 0.196056
5895 165 0.23877
1552 8330 0.644967
18067 7175 0.791269
14270 4749 0.327287
1557 17336 0.566905
19266 19120 0.404413
19665 11000 0.276011
5325 30 0.420246
5044 7714 0.0418267
10048 6756 0.65642
12269 1650 0.365379
18451 16422 0.978532
794 14379 0.186188
10953 675 0.148642
2016 6525 0.641783
4719 18605 0.65304
15632 19049 0.0851807
7663 16664 0.696637
4843 5324 0.196102
10723 8341 0.83954
7880 336 0.319983
9118 6397 0.782614
5054 8060 0.346547
824 17339 0.163331
11370 386 0.0624461
6079 5354 0.531094
10764 7246 0.687272
12160 7282 0.0659183
10439 19259 0.540707
4943 4137 0.806574
7570 7034 0.0748762
9522 8689 0.216698
15294 7924 0.086701
13531 2302 0.331861
1284 17769 0.00963021
3289 2825 0.993515
5429 14412 0.549459
9515 875 0.122339
3103 4543 0.239206
7188 11634 0.243236
13951 5797 0.465903
3277 6093 0.881094
11842 2646 0.440373
10692 1499 0.226368
9633 7145 0.0222906
10230 7161 0.159274
3966 16173 0.521969
8299 3194 0.265534
475 1121 0.765797
9759 12561 0.484139
12103 16445 0.67687
5745 9513 0.8988
19673 19800 0.735632
17525 6177 0.758714
7059 4537 0.621006
13060 10701 0.960914
379 11627 0.366329
17893 19734 0.125866
8472 19212 0.856461
7862 13895 0.915795
5708 1728 0.894633
13327 17400 0.476072
5170 5286 0.380304
18526 2667 0.790412
1479 11597 0.309908
3550 1027 0.188499
8635 12696 0.788145
7799 2264 0.296439
2053 6827 0.728887
18043 15652 0.538259
10139 4844 0.353879
16903 8893 0.240068
18762 6738 0.444577
5164 19544 0.888448
7477 1001 0.935363
83 4726 0.235003
6126 739 0.0879833
5665 1265 0.161197
6331 10491 0.525317
6309 2100 0.684433
285 495 0.63439
665 2257 0.361529
14235 15519 0.922875
3715 13250 0.718165
6982 8193 0.833988
1808 10119 0.75255
8590 12483 0.990563
1507 7561 0.260698
5650 3307 0.303846
9176 16785 0.86829
12217 6970 0.327487
4192 6201 0.113117
14838 2009 0.572119
17434 2590 0.573773
1422 18880 0.996111
10298 4038 0.510144
8724 7025 0.684241
5885 8288 0.407445
12035 4215 0.399764
3874 8694 0.704061
10688 9417 0.584796
1094 3978 0.483143
5518 7915 0.80599
13834 17280 0.706589
7381 2661 0.696948
11370 10369 0.382422
18567 8903 0.301734
14794 10552 0.803815
18555 7838 0.648978
9937 8956 0.944394
6099 14719 0.128474
15943 5759 0.371927
10996 8028 0.968133
6559 2472 0.256365
10239 4653 0.910786
7366 5502 0.270836
6291 7329 0.286862
3912 2440 0.597704
19542 4909 0.963231
7307 733 0.34374
3883 5808 0.914172
9606 1191 0.147021
10023 12091 0.00310634
5890 6624 0.559608
7878 5774 0.351453
14016 3003 0.849976
8793 5371 0.0500824
5022 1030 0.482169
13532 2396 0.937746
9436 3937 0.969844
8372 2463 0.35246
1830 15715 0.680905
10126 8476 0.137378
4997 9615 0.0768651
17398 4976 0.71496
7201 97 0.284898
5556 2703 0.487789
4589 15198 0.0696158
5231 9715 0.197064
10143 3461 0.973506
15820 2842 0.78045
1462 4151 0.419073
3664 2931 0.51541
10168 3351 0.146314
1265 3286 0.127358
10123 12430 0.679525
19457 13033 0.800167
8665 11976 0.040948
18034 5874 0.987007
12619 858 0.0986989
10975 3602 0.93307
3141 6497 0.0288064
3899 11902 0.507095
18853 12281 0.838626
2933 17251 0.178638
9349 5977 0.103853
18969 4621 0.0819188
10588 1470 0.655032
9542 15089 0.287503
1093 15473 0.510042
12025 801 0.803379
10641 11203 0.328774
11200 9621 0.243907
14752 9 0.559487
8056 12808 0.818469
11272 17235 0.0746065
5399 17796 0.615518
4670 12161 0.589598
7348 4168 0.354256
8052 9722 0.993595
15160 1425 0.179952
5663 2469 0.274875
1423 5659 0.812754
19769 19833 0.722637
3953 6568 0.308076
977 11016 0.643385
12042 13809 0.0437867
15599 672 0.183715
3679 8043 0.949332
2788 9942 0.294541
12695 18889 0.521403
5578 2780 0.340717
8631 1804 0.265511
2841 4507 0.471737
16575 8714 0.777343
14286 13251 0.351577
174 9639 0.518198
11442 547 0.930979
5194 11597 0.636063
6039 19691 0.588653
657 10617 0.345999
1670 11258 0.371256
1986 6515 0.910273
7375 349 0.631566
7221 10417 0.0779267
5397 8238 0.299792
2916 7223 0.234278
2095 15985 0.258845
11662 3500 0.0665559
13684 7978 0.141152
10426 7779 0.612282
8343 4405 0.918626
12875 17714 0.263362
1569 11430 0.504591
974 1279 0.975617
5655 9819 0.910017
12227 10710 0.303725
12082 4081 0.885051
6091 11880 0.933404
10075 9705 0.957706
9667 13767 0.848883
3735 4881 0.820844
4619 5538 0.517326
14527 1102 0.0100665
5063 348 0.881676
10151 4906 0.802192
11034 19232 0.976193
179 19544 0.380003
866 3864 0.810415
8288 6974 0.30039
12124 15522 0.776694
13426 6404 0.309352
27 8573 0.596139
16477 964 0.76466
18122 5581 0.671284
7289 10395 0.408427
8654 723 0.786067
1353 9120 0.245597
14827 10680 0.797387
7076 19215 0.762072
17571 9646 0.320615
9276 15210 0.904242
4096 3558 0.118809
3911 6509 0.0365423
19566 481 0.449845
2054 943 0.822352
1731 5431 0.388719
18982 441 0.766932
7809 13512 0.834686
15144 11900 0.819813
12427 1814 0.52046
8788 12710 0.319902
5802 8804 0.0322585
1278 14041 0.857081
4217 2434 0.0181602
17743 3995 0.241353
7759 18354 0.759513
11016 7850 0.768471
5675 19525 0.19845
15296 18894 0.428076
10134 1532 0.162388
16785 10444 0.792606
4970 2024 0.814808
6075 2727 0.83529
9647 4894 0.413709
4210 7433 0.664937
13883 4259 0.0479063
4063 11865 0.444713
337 11403 0.0320048
5614 15686 0.896861
1273 7336 0.334419
12363 9467 0.321907
18734 1192 0.164703
9915 11530 0.146719
9713 3435 0.137222
11985 15654 0.331875
9034 2170 0.0631725
1971 4391 0.356004
2662 11295 0.897088
12452 19402 0.670203
17073 2781 0.542709
17904 10760 0.337934
7214 11943 0.530026
1406 16195 0.787851
921 4695 0.954134
2161 17708 0.89591
1695 11394 0.817043
8342 296 0.699394
9199 5057 0.620581
9264 17933 0.637546
10671 1076 0.990062
2803 6318 0.312243
7656 1806 0.434349
6148 9670 0.640031
12613 1715 0.677222
4174 11301 0.0294405
9428 7399 0.624903
7417 240 0.368994
7835 190 0.923851
13684 5905 0.0605431
11840 6252 0.467124
9586 7603 0.381836
12235 12224 0.806507
4657 18511 0.924112
12674 18648 0.797252
5194 8804 0.0246717
19866 9940 0.85165
15460 18559 0.310589
12009 19366 0.463467
5090 19399 0.628571
3115 9487 0.984928
8411 8989 0.434363
967 24 0.826574
4070 11234 0.286501
7306 3199 0.419615
12356 8751 0.534966
5428 10132 0.170901
17848 8000 0.126237
15509 17852 0.485831
18399 9216 0.310589
12489 1463 0.376519
17735 8973 0.497467
7751 704 0.454946
6046 8526 0.912168
9900 4130 0.80779
9254 15479 0.452526
11544 6272 0.128321
3505 3964 0.595707
16123 500 0.927759
13303 2777 0.260355
15949 4555 0.782908
5828 13410 0.42337
9811 169 0.400595
9715 10346 0.615154
671 13467 0.936184
13774 17730 0.428064
3422 9078 0.0159392
12864 11276 0.548529
16700 172 0.970667
14392 5282 0.232269
9885 7147 0.665107
8210 2713 0.801901
14649 14704 0.0684422
19496 6522 0.139063
6127 528 0.596615
5071 5834 0.882316
15466 5273 0.652044
18663 7040 0.968061
10333 7962 0.805135
1722 420 0.123246
2261 2738 0.982058
14616 3526 0.984082
19960 6906 0.984045
2556 6359 0.645233
2509 8805 0.423889
5753 800 0.27019
12258 10919 0.246169
6954 9199 0.598233
12309 12684 0.958554
6181 6088 0.465513
3015 19479 0.341179
2745 3329 0.523322
17026 16339 0.9664
19116 17434 0.690187
8501 10921 0.0431611
2606 319 0.595793
10385 9752 0.583127
7908 11045 0.46135
8411 9490 0.232855
9276 10292 0.878851
8256 8440 0.438299
10932 7860 0.872782
19230 10450 0.471151
3168 1991 0.918427
11208 10242 0.601886
14946 2801 0.985051
13898 16093 0.309806
4277 1575 0.0981626
3591 3913 0.0728522
8525 4183 0.191155
9184 19510 0.129344
303 16493 0.348167
13777 17351 0.834048
16897 1445 0.894381
8377 17307 0.404942
6648 3280 0.204072
18390 18726 0.47876
10200 1664 0.411342
13772 11306 0.35797
2603 9370 0.750072
10605 3591 0.623228
1378 9184 0.186311
18400 19239 0.507631
4730 9830 0.507102
5508 9772 0.858247
4569 15954 0.440753
9226 10872 0.660131
2298 18547 0.68023
6719 11885 0.458518
5420 10712 0.903697
18453 5464 0.0560495
639 5378 0.00423679
2139 2074 0.471947
12036 16163 0.591225
2266 8546 0.199209
15069 10311 0.551045
2446 5852 0.180222
14384 421 0.681956
11461 4204 0.802585
9037 8644 0.687555
18620 17825 0.0163373
3250 3541 0.172861
2847 3844 0.197153
17878 1570 0.118596
19463 17647 0.0402373
1359 7070 0.892443
16957 17830 0.768438
2248 570 0.00204022
5791 6291 0.886095
14513 1298 0.158726
2112 481 0.297973
968 18578 0.385836
482 4702 0.25578
612 11142 0.952464
9607 19741 0.224756
10392 2734 0.0583488
16724 97 0.428841
5140 3546 0.776486
9106 9306 0.820621
10819 12247 0.703839
16800 5545 0.19848
11117 5229 0.853464
8739 10134 0.441541
10254 4808 0.143842
3486 7346 0.250457
1413 5272 0.626748
11053 11591 0.348665
9254 11867 0.90971
16744 11311 0.286888
18390 5637 0.081786
7633 11298 0.850543
10067 16895 0.69614
13192 4219 0.415436
2245 14136 0.100089
10376 10952 0.356165
18019 3796 0.501772
6363 255 0.130888
8855 7317 0.975205
7340 11197 0.774588
8654 7775 0.562293
6255 6493 0.894263
11033 151 0.925358
10844 1613 0.669438
17672 5568 0.633236
8243 12745 0.721326
2873 15156 0.461944
12743 8635 0.200042
12580 12724 0.442843
8804 12349 0.941269
6190 10284 0.410004
2371 1191 0.464989
2227 7556 0.301741
12724 7803 0.0878386
3814 14001 0.698869
8893 7032 0.886494
1548 3611 0.146428
9845 5354 0.325824
2177 2653 0.65088
1777 7676 0.71347
10296 1648 0.235345
7211 15583 0.0327533
4098 12066 0.646274
8603 786 0.43724
1884 4173 0.440477
15961 15625 0.580478
13090 9111 0.264549
12674 1083 0.256888
19288 12296 0.30767
1003 12960 0.431146
8858 6814 0.177442
3882 7233 0.135829
4249 18375 0.794287
14225 2781 0.172941
15869 14727 0.400643
103 9261 0.0748171
6907 16090 0.955034
14206 10480 0.917249
6802 371 0.28606
11144 6793 0.703856
6766 11758 0.383744
5556 1399 0.908078
1790 15649 0.0782108
9819 12574 0.484684
5548 816 0.208229
16131 9570 0.460483
17881 5542 0.950924
14346 4049 0.573745
147 13442 0.130732
3350 10456 0.569041
6119 15445 0.972119
9541 4052 0.936382
2802 6101 0.902802
2362 18661 0.703953
4699 8879 0.283324
3892 40 0.407296
8376 11057 0.726537
597 6142 0.22275
11819 7110 0.937065
104 14984 0.0287767
6790 3934 0.299572
10401 2590 0.186012
84 15883 0.191077
11377 14519 0.226143
1092 16533 0.00691363
9351 3683 0.337147
3025 506 0.426984
16677 10275 0.488652
12244 7067 0.82658
1844 9804 0.744873
14901 10487 0.548394
12349 3148 0.341084
5150 18853 0.0723622
9453 393 0.00249242
15289 4586 0.238124
11733 3799 0.488695
12453 3023 0.895908
14529 1409 0.691289
19106 14058 0.949362
13675 4598 0.489327
16482 10509 0.318355
6160 14873 0.324353
12098 12480 0.950419
12532 6657 0.495721
4426 13788 0.370104
7645 10863 0.406696
14623 12390 0.199543
4791 6408 0.967582
635 3221 0.478815
7456 2341 0.895064
8800 4052 0.212606
19013 3441 0.912363
113 451 0.887663
16629 4882 0.896499
1132 5396 0.540846
1339 8189 0.435796
12628 6560 0.129263
7778 13568 0.872647
3523 4486 0.398804
11951 12431 0.584998
11507 3124 0.995963
8443 13693 0.47224
7121 7991 0.848154
17298 4321 0.136266
3750 15065 0.896866
2997 17523 0.287529
16996 14676 0.718934
666 17623 0.517512
1861 8154 0.0726925
7206 11636 0.441299
13430 7118 0.83337
5165 12939 0.190517
19379 5882 0.505182
9163 6751 0.283112
11297 18616 0.96472
2958 3727 0.232091
15829 18224 0.981722
15263 2297 0.735478
9085 19883 0.0714418
6838 1947 0.250957
915 183 0.329636
3925 1805 0.333857
5527 3336 0.371293
3546 9991 0.369393
18303 4674 0.160755
7519 11334 0.127358
6517 16231 0.74858
4450 14601 0.793415
6874 8980 0.245597
9494 4352 0.464929
6783 10906 0.855064
93 4260 0.098658
2038 7272 0.35932
2387 8881 0.16868
10606 9425 0.85184
12950 5115 0.571568
12890 16679 0.91656
8090 16972 0.263362
8909 59 0.984297
15340 5416 0.982509
3112 11537 0.782943
18057 5059 0.612229
11624 11142 0.330372
9550 8516 0.376561
5151 5424 0.561095
730 13243 0.0717211
5749 16839 0.874222
2635 19744 0.559757
2347 7203 0.528929
7679 6660 0.534811
10415 10882 0.421862
6855 4575 0.564724
11475 756 0.208459
8112 12231 0.130788
1551 14142 0.469589
4445 9803 0.759187
5858 16822 0.00827184
2515 3478 0.0696519
6097 13683 0.253231
11606 6733 0.134495
14333 2109 0.741886
10288 10684 0.461328
1607 11979 0.461632
7398 7375 0.86318
7601 11715 0.578672
1023 2703 0.228919
2777 8680 0.652773
3428 15459 0.919046
12314 9548 0.80779
1142 1927 0.0349648
11800 11037 0.649595
6561 10868 0.660374
18557 8104 0.972622
2633 2021 0.806444
9358 6062 0.0861352
9051 4388 0.644464
17914 2073 0.805785
13320 4212 0.341179
16514 9212 0.653588
5650 3643 0.594664
15172 19648 0.885741
4440 19826 0.22976
4429 5252 0.474392
2842 8530 0.522727
1476 2729 0.443762
18671 10152 0.820962
5882 3424 0.738483
8328 11773 0.534463
8405 4719 0.194701
15536 244 0.112083
3398 7725 0.408896
8767 17373 0.976014
5663 16496 0.115779
4860 5713 0.860168
9197 4500 0.0285102
10883 7947 0.818769
2896 15007 0.342146
7380 12963 0.157604
19425 6564 0.940165
6037 90 0.507826
2357 7726 0.231444
10778 9405 0.246125
721 12296 0.452911
902 7286 0.495803
2393 13668 0.838345
8969 12738 0.145008
2551 14607 0.0405343
4913 2455 0.0361811
4964 7467 0.672647
8674 11164 0.212128
8317 7805 0.0796076
11239 9900 0.800942
9774 13747 0.665275
2465 19751 0.0791005
10736 569 0.855064
2703 15946 0.877863
144 4631 0.366096
7468 16941 0.719573
10602 7971 0.475978
12 9709 0.125863
52 16427 0.749815
14532 10 0.885347
4200 6471 0.572526
8618 5223 0.808729
9618 5107 0.492392
16588 7902 0.0839423
3114 12484 0.697088
5563 16260 0.14091
2199 4 0.745356
9858 7790 0.738483
13885 2183 0.579658
9942 10033 0.751641
11166 15590 0.94583
12425 2423 0.159445
6895 1938 0.715686
5375 1656 0.148812
9315 10062 0.0334146
6988 17480 0.184511
12010 10174 0.954641
9163 9359 0.204649
14134 18449 0.582931
1129 9536 0.89113
8182 9682 0.860388
5316 5110 0.17875
7688 1832 0.817861
786 10324 0.427289
5489 7007 0.458856
3648 9897 0.210791
1776 2025 0.574765
4907 9905 0.619316
1742 15318 0.970883
9744 5598 0.0726985
350 19475 0.311425
6023 10717 0.162593
10007 871 0.97548
10466 11967 0.752947
7072 13887 0.309099
16006 13412 0.816129
7996 2951 0.733048
14640 5322 0.613235
16558 9784 0.742437
16952 6115 0.693539
15186 11812 0.38094
18328 14185 0.919854
3038 10848 0.119986
1465 15272 0.07234
11394 11744 0.54594
19539 2069 0.772203
10952 5505 0.562213
3589 5315 0.847253
4784 6942 0.921306
11104 19042 0.857172
10486 1995 0.391041
1381 15383 0.0217988
11203 653 0.827446
6282 5942 0.169126
446 6332 0.134821
2752 780 0.173239
7028 3280 0.750963
9757 7534 0.725986
12216 5375 0.547295
11441 8072 0.596726
12329 14556 0.340717
2161 6691 0.0228749
6171 17796 0.586429
1132 10765 0.615727
13252 3854 0.26621
8338 11905 0.473716
17341 12909 0.588895
11398 17429 0.118625
517 11248 0.277145
8759 3514 0.0891652
9214 4140 0.451218
6396 4830 0.913038
17433 13093 0.37702
2103 2207 0.960595
12413 6360 0.0477981
1933 15014 0.614175
6992 13706 0.811554
8675 8239 0.418936
9760 9676 0.591769
6546 13501 0.891609
12516 19760 0.638612
6856 15668 0.649947
8060 6625 0.294342
9999 10761 0.233436
12822 18466 0.252279
4492 11846 0.420643
8216 9313 0.661684
9493 3113 0.656174
1037 12021 0.996083
11944 18221 0.415303
17015 4192 0.808666
4716 12131 0.391806
15481 13318 0.276471
9148 3245 0.319743
7697 12007 0.679304
2162 10783 0.882364
3960 9116 0.665853
6036 7515 0.413642
947 2407 0.53545
19395 4949 0.205969
9979 2742 0.937072
9669 14456 0.89029
1488 4106 0.0555703
2203 7347 0.54064
10053 13778 0.238361
3151 12264 0.0093146
13907 2852 0.0144954
19399 6024 0.690165
2004 5089 0.0709264
17662 10677 0.827315
10937 17727 0.717638
2217 11533 0.731988
12265 761 0.403472
14235 4726 0.802476
7175 8702 0.0642643
14743 6423 0.805374
19521 17374 0.0747748
6836 5265 0.389546
11955 10250 0.725266
18784 6442 0.551049
12514 2487 0.624007
12755 7641 0.996692
5412 9767 0.9871
17398 19969 0.516388
2490 5734 0.366147
3105 10975 0.111891
5927 11612 0.352316
161 10610 0.293102
11975 7256 0.340236
13026 10463 0.3534
1925 11197 0.0327533
8036 18641 0.482012
357 9670 0.754983
353 3411 0.625398
4854 6533 0.0257305
4630 7374 0.489681
3844 7622 0.555939
14304 6810 0.837403
11139 17454 0.195128
5911 12037 0.0241923
296 10656 0.595626
2085 11081 0.329733
13665 11825 0.384731
7121 11117 0.88709
11900 11481 0.344638
1951 9241 0.319441
6683 283 0.683342
8822 2329 0.429432
17599 14029 0.643042
4325 3475 0.08255
1428 1718 0.577702
14916 17308 0.194232
19951 7591 0.827447
13051 10930 0.846055
1278 14472 0.832565
11981 11223 0.117958
11537 5431 0.377794
4746 19278 0.2305
12085 16101 0.384062
15445 9779 0.0450977
6250 9412 0.239519
6657 15731 0.771512
5022 6241 0.270176
8435 16575 0.610162
12983 4769 0.552858
11660 5048 0.0291084
8859 11886 0.0448103
5519 7191 0.658748
19700 555 0.952658
4904 11624 0.507378
474 6005 0.49085
10467 19336 0.0924727
14188 12346 0.112247
11185 10904 0.506932
6780 8510 0.549789
10984 2141 0.106486
11818 14996 0.116053
14004 4747 0.637985
8130 4504 0.330792
11610 7841 0.367861
9581 12988 0.266538
2596 16648 0.130827
2452 434 0.174757
4855 14186 0.366769
3464 2518 0.273784
14003 3213 0.303411
5130 12144 0.823816
11054 9670 0.925524
5418 8130 0.254281
4415 3136 0.749035
1336 15996 0.623887
14530 19552 0.124713
7336 3840 0.446773
346 12088 0.233676
5252 3356 0.357379
15479 9113 0.0744022
7148 7711 0.850364
3409 14973 0.186258
18002 18486 0.779784
15854 6040 0.577733
1783 3877 0.132418
9501 7891 0.969059
11970 8222 0.796179
11370 4854 0.291499
14918 5894 0.95401
2530 19329 0.322914
3988 1657 0.582102
6809 12649 0.450951
9871 9096 0.26436
19056 8696 0.127358
1142 4589 0.54005
3985 5899 0.48178
563 4476 0.123053
4378 1996 0.0698919
4073 3063 0.0714864
8294 9322 0.806958
4660 10046 0.596641
1679 15865 0.345659
13070 1650 0.975933
8314 6783 0.00298439
6969 12289 0.0751103
8324 7236 0.0935372
17333 10611 0.114759
6728 11512 0.755228
5901 1 0.303295
1844 12006 0.468833
11776 10266 0.105569
13628 11731 0.304419
11786 17940 0.824589
10163 4267 0.0802268
2101 8923 0.434295
19217 164 0.103024
8216 5482 0.237363
12078 6644 0.66613
2524 6844 0.823955
12832 3027 0.94271
6879 15515 0.322981
7727 16023 0.369629
3494 2732 0.102166
6387 12768 0.679126
8478 11329 0.543948
7467 503 0.281303
787 3711 0.826039
2725 1723 0.483182
10362 4468 0.154803
12802 12923 0.833691
1252 7172 0.438558
1194 10006 0.590833
5149 8217 0.18878
15977 9802 0.566591
16361 1813 0.506257
10601 622 0.814907
341 6835 0.237441
1137 4549 0.079162
9242 16609 0.863272
1342 8055 0.344888
9818 16201 0.187046
6002 3386 0.718045
12607 537 0.511586
1340 19119 0.824433
13034 1034 0.954185
10828 7400 0.172007
15370 12739 0.925889
7098 4008 0.363487
4193 12183 0.705878
11665 14176 0.0620223
10223 15505 0.643407
17487 1081 0.014664
15753 4569 0.996692
12860 5282 0.56176
4087 410 0.812
15592 9230 0.865884
11599 14696 0.258618
9801 7144 0.34804
10784 7674 0.346843
6627 9120 0.297737
1126 9772 0.0374995
13755 1590 0.446123
18969 11790 0.0810012
10829 7734 0.470219
241 14281 0.548636
6819 18264 0.203321
11511 2496 0.436648
11151 12102 0.0474422
3508 3240 0.154806
8803 2529 0.62065
3127 2962 0.862715
17665 17271 0.944514
9275 10999 0.619469
6125 453 0.916714
1169 15951 0.845174
419 2728 0.314963
3713 16380 0.656249
8346 6024 0.774017
4515 5680 0.65747
13969 1254 0.22425
6244 19311 0.467371
3873 13291 0.376998
1465 4798 0.08255
2504 8826 0.659336
1037 6073 0.890785
11007 665 0.532918
16073 9847 0.936121
141 2278 0.101485
12698 6266 0.89749
7280 1008 0.14204
1576 12218 0.669226
17033 13358 0.75524
672 11677 0.278907
12862 1724 0.184818
515 11048 0.790159
6495 13254 0.871546
12038 4124 0.946956
7962 3595 0.537032
12131 11594 0.333049
2550 5887 0.965579
11107 2683 0.963426
6960 351 0.647676
12678 827 0.756757
4521 1755 0.833379
1499 2855 0.01416
2096 8975 0.246745
3131 2718 0.686632
13181 8314 0.0912095
10269 6897 0.340292
3308 11072 0.501276
6836 11301 0.0363497
4936 6040 0.376369
10296 4003 0.660374
4626 8154 0.617038
5194 2003 0.0635622
11339 4441 0.0381753
9164 14123 0.983689
553 9950 0.940149
17173 193 0.294843
3896 2317 0.348952
17362 4979 0.831928
18535 4986 0.514533
9844 4285 0.424032
7608 14656 0.949469
5908 13689 0.94813
5249 6355 0.265098
14646 7797 0.180464
9817 4339 0.72694
8509 11084 0.015325
8013 3069 0.160755
888 17744 0.0189168
11797 4668 0.00703653
3160 10086 0.725321
4915 5804 0.17973
8877 8092 0.488695
16071 534 0.736135
3395 7731 0.880751
7169 11902 0.512433
18958 5693 0.827246
4329 3748 0.857197
6131 4140 0.237394
6874 6106 0.364017
5091 10953 0.601885
4704 9549 0.163889
9431 60 0.167998
7628 2015 0.650924
14260 3303 0.0027983
5203 712 0.810064
6618 16406 0.343578
4499 10782 0.02818
13968 1305 0.574119
12739 12635 0.792792
9380 5179 0.77969
17874 15615 0.299698
6533 3255 0.702393
17044 9545 0.344744
10212 1887 0.380613
12377 19537 0.555339
1044 15346 0.00536466
9801 10583 0.367974
16414 2120 0.424032
3137 8737 0.0448146
473 16803 0.473399
7176 897 0.538404
10972 11490 0.500969
10709 2213 0.93825
5107 7414 0.532189
4244 7062 0.818469
2943 15971 0.177282
1929 4589 0.18539
11870 14446 0.922002
15360 13236 0.647017
19500 5900 0.778276
18287 15337 0.531563
16737 11543 0.721461
9735 9252 0.912834
17109 14362 0.478592
4269 6963 0.778277
13523 9342 0.173273
3274 16596 0.479748
9103 4073 0.912744
6712 17179 0.549152
14829 9946 0.884433
11238 92 0.735658
12206 5649 0.879876
2741 7991 0.678692
6072 10233 0.333422
17815 14319 0.36645
13617 11055 0.0169937
3602 19183 0.577587
1443 3488 0.587857
5486 7716 0.673233
18647 95 0.261086
10423 806 0.980687
4333 19917 0.940149
15359 6684 0.685825
15037 5385 0.415414
2218 16835 0.487346
1574 11147 0.706189
12496 14960 0.788507
9903 2499 0.351431
10695 3279 0.846133
12502 15404 0.831074
6398 6540 0.121451
11479 8948 0.820236
5512 1749 0.674824
6339 17578 0.28995
5248 3345 0.984168
8090 5940 0.105907
551 12277 0.527433
150 3708 0.798352
8795 2150 0.488978
5276 2646 0.08851
7896 792 0.149247
12219 9407 0.252255
3583 1805 0.753701
3550 7097 0.428076
12233 5760 0.962982
15946 1941 0.146723
7086 4720 0.375218
9125 13880 0.591222
3297 8269 0.385893
3322 7246 0.749237
9309 1055 0.391389
5281 3015 0.810415
14557 15696 0.973736
5187 1220 0.851848
3180 3267 0.59889
19815 13739 0.738903
19575 4231 0.828033
2121 5194 0.971156
6228 10131 0.7534
8123 10854 0.479127
10129 17426 0.507998
912 11433 0.916999
1954 3439 0.39715
366 3567 0.243785
7452 11895 0.854023
12067 9364 0.785566
1209 16549 0.17451
9757 18257 0.589998
7563 4722 0.405549
1272 10161 0.657427
16310 15523 0.737907
4821 10983 0.449158
5834 17431 0.112491
15803 8582 0.12133
10589 14926 0.156517
2587 2350 0.326399
13296 5203 0.109255
5095 14925 0.981016
11679 797 0.665214
2218 1221 0.0479152
7447 11873 0.0380515
8012 17133 0.398753
3368 4056 0.462094
2903 11872 0.155374
11623 8187 0.109362
6175 11206 0.493896
8147 2067 0.193628
13619 1693 0.900098
9856 5635 0.555966
4072 3156 0.325436
4405 16838 0.00493164
6358 894 0.0663865
15717 16128 0.320976
7395 5014 0.495885
6087 4943 0.717395
4461 7755 0.0164877
1815 3060 0.424779
7068 14749 0.620207
4683 5793 0.0518712
12458 1181 0.895616
2034 5311 0.491789
8434 9471 0.996831
2254 11833 0.415893
1005 14525 0.31728
5224 5389 0.797751
2790 6332 0.184274
7615 3348 0.234454
19236 17585 0.92648
13642 4723 0.350181
9337 9833 0.930412
5360 3377 0.988916
7260 5363 0.692084
878 15387 0.149722
12625 15863 0.73899
10055 2018 0.30642
9082 9681 0.551049
1865 5586 0.670902
2349 17958 0.285906
387 2588 0.183867
5459 9039 0.0208288
11951 3895 0.115884
3645 12421 0.331433
7034 5822 0.897559
1531 13242 0.0840372
4070 15209 0.720883
6549 197 0.0745122
5311 12223 0.217698
752 1254 0.433371
14565 11222 0.490671
103 11067 0.950215
11755 1578 0.755721
4921 7949 0.381516
4203 4968 0.220215
13393 13727 0.407296
17167 8160 0.49061
1841 16613 0.515411
7224 13494 0.468668
7025 10966 0.936706
17356 6338 0.434306
9840 8914 0.680802
724 3605 0.256111
5850 15669 0.900085
5600 11127 0.0103474
10512 3074 0.313158
213 9079 0.801341
4694 10283 0.501963
11101 19819 0.319406
17191 18932 0.128941
16936 17587 0.770593
15840 13133 0.264549
5604 1148 0.929836
8094 1476 0.454606
13948 7409 0.418854
11031 9931 0.308204
6849 8864 0.743526
153 3817 0.426987
236 6846 0.487346
6152 12275 0.786956
3662 630 0.141437
9897 11183 0.475521
296 5522 0.785319
9734 5544 0.898361
8847 1369 0.957364
13937 19886 0.623913
10138 5278 0.318837
11897 10092 0.940308
13847 14586 0.483182
77 8463 0.572889
1088 623 0.0175162
15311 6428 0.141364
2616 4336 0.299055
11658 8503 0.995012
4015 15629 0.133795
7316 13181 0.624177
19865 6245 0.764321
13222 15818 0.824237
10527 19602 0.164703
2306 18445 0.576892
12274 15306 0.870776
1175 11746 0.224756
3129 5909 0.634259
5151 12228 0.887544
3902 8954 0.794275
6292 16703 0.478031
7478 6118 0.387843
5584 9117 0.787726
3359 8222 0.723723
12079 6732 0.95592
1748 18884 0.111462
22 7475 0.291732
10585 15136 0.711033
6556 15847 0.545715
10026 16499 0.052663
16753 7113 0.322491
14297 4604 0.568462
9547 17921 0.635186
6680 12802 0.0126789
11001 9635 0.504371
3350 17127 0.987235
4500 9076 0.327936
10117 2471 0.0747356
8592 9843 0.116039
2974 14011 0.270836
12289 10376 0.76182
5814 2352 0.233378
17870 19394 0.244212
6226 4103 0.0533303
19855 477 0.809514
3051 3356 0.930979
17662 6254 0.371795
14479 5982 0.293272
2762 2133 0.382506
2859 13708 0.139048
440 5231 0.0315414
6262 1300 0.973915
4224 19260 0.995146
17617 3878 0.580427
4037 2626 0.661937
8054 9000 0.467433
18114 5321 0.903947
9149 13017 0.280512
15489 1550 0.190607
9513 11599 0.22023
13109 6623 0.663396
3826 3424 0.649947
8413 9598 0.660433
601 10917 0.778648
13710 4581 0.950848
6758 19232 0.540884
4998 3515 0.0456974
8602 12391 0.0339703
2634 10872 0.95955
4484 1874 0.919814
3486 6664 0.00802258
4889 5667 0.0139052
1809 5483 0.640304
10191 11658 0.377539
13577 19900 0.250453
5828 8358 0.242259
8936 15881 0.975978
2266 18342 0.335138
2506 2474 0.0205733
10290 1551 0.209613
18841 978 0.715029
2763 15365 0.414419
1657 8084 0.866036
17041 15043 0.577375
15803 244 0.859955
7203 11165 0.426832
14028 2082 0.0263784
10077 12176 0.197278
3350 13816 0.0293934
10556 7901 0.91339
18983 9956 0.377069
9511 12118 0.328893
12519 906 0.311493
5070 13455 0.873263
4888 9323 0.316607
9289 6414 0.308292
12661 7957 0.418815
11939 16415 0.437834
13719 12269 0.601522
7508 9200 0.30084
6003 11759 0.92651
14444 621 0.319637
1652 12066 0.882542
12023 10939 0.0369179
9679 16555 0.366219
10575 11607 0.0172859
4008 2926 0.595384
7467 5797 0.882097
259 3857 0.501573
8281 7449 0.990608
6182 3771 0.357065
7742 1601 0.79399
9278 6799 0.583538
9681 15803 0.272133
385 7154 0.261684
14249 19758 0.27996
4950 5669 0.950869
11148 7380 0.47224
12886 8933 0.299666
10614 9737 0.393134
12660 12257 0.815607
8857 5446 0.131192
16453 474 0.977516
1837 1511 0.884163
4143 12518 0.96678
10186 19585 0.467765
10714 7505 0.307699
8702 12515 0.435422
199 9383 0.646561
5489 17264 0.898331
7632 1011 0.866569
11015 7723 0.870294
19160 16904 0.720173
12664 18765 0.599057
8531 2626 0.692384
8611 19173 0.577395
3840 11484 0.277609
14734 12001 0.0838097
1417 4974 0.0538642
10894 16612 0.496625
12012 12271 0.238064
11899 6394 0.384939
12302 6271 0.426408
11965 1757 0.820621
6461 10523 0.841248
19534 8429 0.290327
13429 502 0.424725
4489 15657 0.413995
14368 1095 0.643524
2527 1414 0.471885
10591 10088 0.268359
6459 8712 0.0703132
14267 3017 0.0418358
13172 9153 0.917212
11049 4027 0.523647
11687 11609 0.869567
16431 5347 0.66953
5489 14205 0.231435
19577 8838 0.323703
8206 10570 0.607065
13161 8965 0.474813
4612 18565 0.169777
12258 16734 0.437069
7727 5522 0.496625
9250 5358 0.467647
4140 5389 0.211284
6681 101 0.161933
9641 9468 0.584986
5509 16170 0.903142
8380 13897 0.783382
3772 1645 0.776837
3668 5941 0.93784
12551 6345 0.225165
18793 6325 0.636621
5183 5531 0.166082
9918 3267 0.0192548
15119 18604 0.228799
6459 8484 0.514896
16328 11761 0.894372
1693 8507 0.846567
9595 9838 0.959697
7719 15066 0.989945
18332 7531 0.814314
547 3111 0.0106634
8274 4325 0.121831
11369 9211 0.917587
18283 13667 0.222122
3527 13812 0.347742
14533 9834 0.501892
2548 10348 0.0794677
7610 13328 0.957378
5964 11174 0.477608
14936 3851 0.401523
10175 18959 0.167336
11856 3823 0.207345
2158 276 0.905879
1830 589 0.969902
10678 18472 0.509303
16587 11760 0.145378
7531 12539 0.857457
17708 1153 0.0991302
13382 1644 0.0311964
16110 5043 0.70548
16173 15984 0.399359
3477 19094 0.149268
877 4434 0.790776
9056 466 0.346027
139 7313 0.898956
1265 8070 0.0870444
12990 19020 0.316184
3513 4583 0.900425
2460 3550 0.804401
12605 9452 0.461953
7066 3139 0.314231
1959 11622 0.322189
6076 12943 0.309735
10418 13780 0.738738
2639 13482 0.0148437
196 365 0.817461
8970 3163 0.286301
10095 90 0.0872434
5721 16069 0.211074
3773 10423 0.928203
188 16750 0.603988
6746 8145 0.995006
4988 1404 0.00141272
14334 7290 0.563907
4016 12679 0.793563
16814 6938 0.739969
11465 7221 0.911123
9655 7996 0.718639
8268 308 0.407358
4180 2889 0.0760744
5299 6493 0.0817263
5668 11980 0.92583
6975 17928 0.804526
19054 4992 0.365686
4103 7141 0.788697
9038 376 0.991978
9784 6645 0.604137
989 5712 0.247068
9646 18957 0.823432
828 9027 0.324838
13119 5021 0.293704
9477 716 0.742318
19199 14323 0.437481
4955 19798 0.917734
15002 8961 0.542981
12027 9628 0.00990899
9798 11565 0.740929
6616 5596 0.642737
18601 16804 0.26221
4850 2916 0.372215
3232 11323 0.838345
10440 299 0.261781
17694 6017 0.204531
10816 33 0.42962
10500 9451 0.757942
18995 19602 0.330206
2704 11870 0.999404
19177 6862 0.326937
18563 7582 0.889828
6646 4460 0.409627
12916 9030 0.431271
2664 14625 0.828781
4015 7693 0.647179
10079 11168 0.128434
4474 7904 0.405351
10488 4055 0.809871
4647 14753 0.646691
10585 15552 0.941302
18165 2472 0.666966
7749 1364 0.27569
1727 4384 0.0800363
18183 11433 0.290838
11902 19244 0.610202
10078 7094 0.173935
13490 288 0.564665
9043 4161 0.256059
7672 5806 0.144309
3818 7787 0.502379
6801 7564 0.995865
8479 9828 0.259313
1753 3082 0.255432
7328 6960 0.691385
8721 4333 0.116247
15572 7000 0.110957
19443 18013 0.14098
3256 7936 0.54975
14314 1413 0.860806
694 8823 0.306632
5587 7217 0.500678
997 5946 0.460692
9817 9224 0.252858
6097 12296 0.711033
19613 7600 0.140206
13716 5837 0.379787
724 13706 0.497259
10501 531 0.22396
18065 16655 0.806554
16860 4398 0.24814
6504 2726 0.395707
12193 2528 0.350304
652 16347 0.66055
9355 12390 0.559487
8762 14411 0.496383
3175 4899 0.0720307
653 14 0.465915
4841 8062 0.700646
12739 9286 0.377784
4739 3205 0.69246
1094 2267 0.503108
6586 11601 0.455866
7399 11781 0.239519
5149 9621 0.982968
10464 648 0.690829
5407 10251 0.585862
10942 12895 0.848883
11794 1302 0.879318
6651 10397 0.395219
14732 2189 0.767538
1260 17836 0.802225
5633 12489 0.637318
6184 4662 0.246108
10088 11355 0.309065
6411 14818 0.801889
8216 12574 0.574916
8470 4042 0.267623
264 15848 0.602883
16746 10588 0.66361
15431 18620 0.492774
15867 9404 0.24594
10021 7344 0.50978
9710 18784 0.690485
13946 5657 0.333804
14129 3806 0.302266
13247 8326 0.277609
9593 2489 0.708394
5701 12650 0.57244
9676 1612 0.152359
9100 1532 0.435265
3007 14531 0.165965
4631 6607 0.0499119
6644 29 0.534594
3150 18951 0.501169
1028 844 0.618018
8626 11998 0.807354
9881 10754 0.812214
12679 16112 0.554051
2171 12442 0.720284
13848 5775 0.839644
12801 19179 0.123201
10302 8254 0.885012
10271 9291 0.792871
19476 15819 0.219738
6571 19845 0.621906
6775 12372 0.165564
3205 3073 0.280282
484 2032 0.932807
9780 1894 0.891523
15039 5026 0.690187
790 12476 0.337149
3609 8750 0.51733
4246 2049 0.323882
4978 15737 0.160004
6764 13171 0.244996
3478 8991 0.962038
6919 11804 0.173239
2366 3452 0.509419
615 6962 0.234005
10302 9785 0.584645
12285 1530 0.975046
7487 9380 0.369191
3740 11330 0.107688
11781 181 0.726532
4552 11138 0.348167
5769 10334 0.519893
17086 849 0.6372
1135 11582 0.448201
3858 787 0.592659
13681 3902 0.812563
6002 1669 0.467718
2520 2215 0.0875392
14168 11466 0.487733
8426 8604 0.022955
5099 8631 0.895616
11964 11068 0.864797
11833 12945 0.921514
11210 7857 0.873147
8174 4368 0.188258
17202 9093 0.180394
2064 12123 0.401607
2412 10798 0.0799329
13336 8674 0.341004
11258 17308 0.768147
5102 1875 0.758275
7122 8738 0.792365
2442 7163 0.893171
9640 11794 0.374236
12222 3210 0.866508
14775 9919 0.556101
4961 575 0.0674395
7159 4875 0.896861
18585 4647 0.491047
16832 1545 0.373237
1487 9939 0.104586
5043 16746 0.459149
11083 8233 0.156309
7235 7891 0.719551
7982 7632 0.146436
18396 16860 0.138307
17139 701 0.292487
2104 9179 0.458646
3293 12456 0.995568
9524 645 0.517586
9273 12954 0.688306
13550 540 0.889942
9362 2185 0.443921
5194 12236 0.176672
11886 16109 0.37299
10281 5737 0.598762
5155 10532 0.977113
2796 6423 0.810307
19667 16605 0.211206
9611 19374 0.911852
1382 3917 0.212462
12736 4899 0.564991
19034 15113 0.0283433
19523 9847 0.467718
6719 136 0.423025
134 17646 0.863646
681 18447 0.921541
1026 14254 0.763688
4846 13932 0.282428
3645 2040 0.384062
9533 18705 0.92378
6789 1741 0.385213
5845 667 0.978184
4198 713 0.735291
19959 11464 0.54975
6154 6476 0.607246
11877 11578 0.046865
1068 2570 0.00332097
10457 9380 0.991425
11566 7569 0.933463
10351 11575 0.39417
6953 8544 0.959493
14868 2611 0.0738652
18874 1144 0.8641
11079 1893 0.958224
12714 8139 0.687083
9451 474 0.891787
10098 13567 0.683925
15289 19224 0.170436
5439 10142 0.123662
10247 12599 0.709834
14573 14227 0.0330978
8821 2930 0.516257
8123 16031 0.0676137
17875 3526 0.277228
11610 2217 0.602116
13028 12425 0.715404
1282 11767 0.238361
6813 448 0.488658
6207 257 0.431787
8836 10850 0.0437073
3910 12898 0.212287
16125 12575 0.0144482
4071 2737 0.937065
7600 12020 0.971661
6297 3439 0.0620791
9249 6431 0.562685
15632 17673 0.586542
17486 2479 0.173469
16051 15617 0.435559
7260 8187 0.767362
4301 6402 0.546104
1328 10385 0.235596
15906 3830 0.537653
17884 3183 0.755429
16562 9678 0.553076
8992 4536 0.297997
10821 13398 0.879821
7377 11879 0.47347
4494 9569 0.187145
5831 4072 0.303368
18551 12390 0.547112
439 12907 0.121922
8986 5948 0.092301
5094 12471 0.217378
2050 14299 0.0248625
11395 5592 0.688831
4054 2497 0.410944
16989 18481 0.708484
11162 11529 0.805321
8507 8033 0.484129
11851 2882 0.215419
11901 10849 0.905286
10829 13792 0.435007
2013 19305 0.14091
19438 1714 0.345151
12656 10389 0.730913
6338 974 0.958013
15989 6262 0.39715
430 10146 0.90371
3699 16975 0.450318
19247 4467 0.660406
3994 19894 0.356275
2209 1979 0.0019353
9630 3071 0.965962
15191 12824 0.242259
2871 6298 0.571829
15549 3769 0.91822
11484 15467 0.997993
10034 14432 0.393226
11463 18990 0.60534
11103 11497 0.4977
7104 14434 0.307522
11518 18837 0.691499
7917 4806 0.404703
11602 4945 0.284929
13230 4724 0.461385
9232 11862 0.429306
8224 5725 0.522461
10962 16406 0.903616
401 18708 0.337921
19215 14247 0.671812
5571 12166 0.327
12195 8288 0.862642
11502 9175 0.322611
2468 8764 0.260946
6587 10997 0.320257
14572 8161 0.388084
245 18223 0.412761
16707 4222 0.195792
341 8031 0.197814
9072 16665 0.743724
13785 11926 0.977735
4574 10343 0.285442
9872 16661 0.180302
2184 4567 0.240104
17715 1722 0.424748
11766 1921 0.167846
9097 3836 0.836998
11118 9156 0.960241
8085 1272 0.372756
2656 18171 0.019422
8106 1805 0.820594
5813 16921 0.158825
7351 9980 0.881073
471 5082 0.936926
11074 1857 0.350096
12778 5036 0.749817
4029 19084 0.780054
17681 9354 0.843897
968 3496 0.0974918
12561 682 0.667449
3067 9664 0.34926
1787 3921 0.115454
7437 8891 0.658031
5943 1271 0.686527
3132 10159 0.965761
7625 2447 0.162281
8215 10955 0.371255
4362 5181 0.170135
3474 8528 0.965508
14109 17216 0.389618
11900 7963 0.102781
16143 4345 0.121268
19436 11945 0.623513
12064 1823 0.075576
6292 5267 0.204001
2627 14792 0.304716
5583 1273 0.262174
5257 2885 0.602821
1362 4027 0.828847
5784 8331 0.418004
994 11181 0.213698
4625 5634 0.669784
2734 19732 0.45297
6847 10212 0.0705527
8341 12983 0.343296
7446 7121 0.720883
6756 9993 0.152865
1228 5659 0.735375
3536 719 0.699271
2031 15202 0.839696
10322 625 0.573792
11758 19214 0.806642
12167 5879 0.635218
19698 14192 0.693874
9964 3230 0.659677
707 6636 0.290048
406 5105 0.615589
15821 7323 0.461769
3955 14914 0.808571
12935 16946 0.755619
10647 10614 0.243135
12975 1831 0.748016
5180 3413 0.573687
18390 16997 0.938052
3076 4894 0.468757
6590 1267 0.181784
8070 3642 0.553073
920 9608 0.795459
11225 10473 0.193289
1507 7168 0.330405
1939 8234 0.578478
17686 13404 0.368155
7807 16337 0.452482
7915 1015 0.429896
7804 2462 0.843645
6626 16565 0.189263
7272 9818 0.21385
7574 3586 0.286464
6647 12827 0.311921
10685 19832 0.149216
11847 7171 0.601104
3736 380 0.71588
4260 11500 0.401433
18733 8282 0.535697
2783 14640 0.0734214
7364 6567 0.431857
7456 12873 0.755294
8600 10585 0.0696158
13888 13116 0.332978
7187 1379 0.953222
4052 16180 0.244406
79 14363 0.678139
1402 10969 0.511189
6318 12222 0.797081
18850 5799 0.855827
8409 8220 0.17852
1707 9952 0.259702
11248 6164 0.259596
13881 6206 0.591578
4206 1900 0.949729
2014 12892 0.673874
19981 16895 0.949473
1329 11270 0.416895
5930 8139 0.703294
18149 4200 0.434681
10571 5642 0.667146
11078 11744 0.502311
5723 14240 0.524835
19183 11447 0.338595
1471 5050 0.441068
14156 15378 0.623417
16342 11970 0.218765
18953 1120 0.412003
11704 7864 0.392715
19120 11993 0.217415
7393 11625 0.0138403
15220 11555 0.98155
12600 2751 0.614835
5394 15510 0.747403
13550 4077 0.950329
10707 2855 0.966648
9358 5950 0.866532
5872 17736 0.909829
7970 5285 0.387318
19900 20000 0.395176
1928 4645 0.192225
1640 17827 0.301615
3339 19593 0.0723622
15897 9936 0.642355
4957 16065 0.30597
9594 236 0.347976
6794 4420 0.588466
13768 1309 0.888431
16967 11849 0.856468
577 7887 0.317309
14117 10602 0.989822
9301 5405 0.613519
17218 6557 0.758825
3710 4142 0.494836
2442 17643 0.281222
11579 1507 0.222547
4207 10187 0.118455
9651 1757 0.0476519
12189 7020 0.30423
11563 10644 0.101287
11496 17666 0.0331703
7585 19816 0.838752
3405 17029 0.747874
13269 16564 0.352422
7249 6544 0.0228382
16871 551 0.502574
12169 11931 0.962516
16125 8500 0.559842
3104 4968 0.986008
5927 2661 0.805798
2341 12696 0.634412
2153 12983 0.976387
5476 15871 0.995672
6969 10162 0.917249
9162 7546 0.729294
15885 18099 0.664822
5172 5350 0.944356
9387 17236 0.777343
10609 6898 0.374329
10486 9395 0.0186235
2112 18270 0.461797
862 1130 0.258537
15119 2648 0.761396
9337 8322 0.66953
16174 1072 0.995804
6896 1937 0.619693
699 14613 0.641824
2736 17057 0.430175
3489 16442 0.0369782
4907 2556 0.537826
5750 13953 0.614888
3985 12083 0.221067
17247 11007 0.053139
4580 13278 0.230347
18552 8847 0.220685
2634 936 0.286539
7420 8986 0.847095
5428 9171 0.439929
6034 2840 0.255432
3952 3858 0.831599
18659 18403 0.413226
4798 2476 0.575555
10694 10719 0.111842
5858 15497 0.338151
13795 16508 0.808075
11169 19964 0.25414
19740 4127 0.408267
4361 4582 0.323553
11997 12490 0.0659135
7361 12385 0.633379
19388 12401 0.949385
8883 4555 0.528074
8346 19142 0.0956681
10527 3764 0.264725
18023 7519 0.0513326
13788 4818 0.927012
12906 15944 0.596707
18377 8448 0.561452
4863 10299 0.886498
9472 5004 0.952648
14469 11041 0.513927
9808 11191 0.832769
9597 14540 0.236823
7583 98 0.599332
18651 4662 0.481811
9961 16221 0.481006
19807 2127 0.696168
5940 16621 0.0286036
6481 4146 0.0550225
10010 6230 0.227575
1073 17973 0.684484
3014 8125 0.672487
12444 14141 0.7815
7983 4968 0.0523805
12594 2240 0.842748
6650 5381 0.777814
3165 14717 0.796978
9399 4517 0.231262
6752 12341 0.103637
10169 6928 0.236787
14863 19002 0.589856
16026 3077 0.749621
5195 16329 0.478267
14467 4128 0.77127
15150 13342 0.467353
11281 11700 0.68307
10925 17728 0.960137
8447 1210 0.999161
2500 12094 0.724574
8425 9497 0.543877
10878 17984 0.793361
9043 6415 0.952503
6168 14311 0.648645
11279 6427 0.620605
13791 1592 0.293367
3994 18583 0.269978
4413 10168 0.657069
15239 11345 0.737192
2813 11231 0.3123
15745 8992 0.620605
8029 212 0.206219
16678 3569 0.258485
6064 19013 0.537205
2842 12580 0.551185
14122 592 0.366471
1963 12238 0.666765
11879 5930 0.725898
12532 6612 0.483179
3485 17364 0.356121
10833 13639 0.99892
11713 1457 0.79973
17270 12570 0.699072
6659 8122 0.647497
184 9496 0.551088
18756 9134 0.886494
5844 8607 0.218641
6663 14908 0.918004
19407 10796 0.664231
4873 1641 0.838245
11868 8998 0.851092
7659 3972 0.982904
12683 11057 0.408267
4455 2213 0.0271825
6415 10454 0.422188
3293 11035 0.549655
5637 10036 0.539066
10901 6024 0.678065
19945 9453 0.546461
18263 14413 0.356165
3427 1125 0.443341
2698 19034 0.354559
17297 16663 0.764111
17178 4990 0.530261
19489 7294 0.0858737
2502 15904 0.601182
3033 217 0.54594
18733 15036 0.440783
8655 2246 0.749618
7688 5190 0.66281
4140 11793 0.230155
14876 8952 0.967764
16251 10190 0.0126493
18641 11319 0.76869
145 15054 0.868297
6118 7149 0.0857878
5631 18995 0.278188
18021 9293 0.722338
13808 15264 0.765294
7607 9559 0.162035
8139 9538 0.503108
11230 11037 0.393927
12084 299 0.369797
12318 657 0.737152
2848 7720 0.801375
12321 2444 0.404223
15646 9979 0.181966
11487 8666 0.692056
12709 3686 0.0156278
2999 18526 0.898294
6680 2960 0.349914
14154 17178 0.830679
10022 11999 0.711035
6521 5951 0.280776
12404 2353 0.760753
721 9407 0.82688
8335 10761 0.893818
12429 6024 0.408975
2887 1360 0.973603
9082 5628 0.346778
7343 17510 0.953085
10345 445 0.157785
13771 3126 0.0895862
5936 11493 0.849948
411 4090 0.744611
10501 14418 0.863272
6258 5587 0.372635
11475 18275 0.336065
7531 16454 0.934589
7132 9772 0.17811
10350 4669 0.990979
5329 10507 0.268387
10244 10940 0.426646
14517 7127 0.838651
15708 18825 0.630998
19269 9975 0.588993
14561 12779 0.151977
11481 6185 0.612218
2930 8707 0.425708
8483 9936 0.204974
12614 10557 0.548883
954 15438 0.118814
2806 3858 0.92119
3597 1922 0.135814
6728 2520 0.0440211
2740 18307 0.721138
10434 1473 0.492197
9973 4787 0.748041
16931 10561 0.396171
5840 11571 0.915825
1320 2229 0.620119
171 19475 0.487558
4134 9554 0.064544
14717 13888 0.0603599
14704 7290 0.893565
16575 17824 0.225209
10189 546 0.565417
5744 8257 0.449051
7123 4442 0.839125
13151 10513 0.1742
11317 11853 0.363134
11100 15905 0.181885
3981 594 0.762007
2323 12373 0.0382369
9515 10216 0.127127
19344 8346 0.940868
3101 8826 0.419799
1775 12159 0.377183
7809 8673 0.391816
15585 7732 0.855792
3602 8859 0.833849
3832 3036 0.499871
9472 7705 0.310893
10444 4188 0.18539
8558 19306 0.114999
6565 11611 0.325558
10611 1050 0.14631
2592 18666 0.0378438
10376 1737 0.919046
4658 5778 0.582374
16823 3714 0.12764
9266 1088 0.219914
11625 18675 0.563719
13765 7847 0.597104
12438 10272 0.806685
17058 3203 0.393805
11853 15833 0.305593
815 2884 0.893816
1483 19058 0.828655
1321 19648 0.287275
18938 10822 0.250327
15654 11897 0.156137
1078 8913 0.54252
1488 11859 0.0559442
19205 17664 0.470565
4869 16607 0.653134
2021 19008 0.524975
6018 9382 0.124525
9599 14598 0.752154
17613 2251 0.0175289
2560 4419 0.227406
2948 1901 0.993252
5936 28 0.708266
2686 1367 0.244661
8529 16290 0.661762
8017 4145 0.91649
1107 12669 0.878607
7205 19883 0.19503
9540 2284 0.0255038
12248 4575 0.0391479
15497 2546 0.332751
7563 12205 0.299239
1475 9319 0.294603
3544 4619 0.115884
283 11664 0.373896
5436 7636 0.555966
15128 9309 0.470266
4972 8511 0.762451
5181 7452 0.232769
9332 12463 0.203756
3481 8484 0.380806
11412 8150 0.871619
9582 7492 0.488765
10510 8270 0.902693
7943 4144 0.458409
14527 12355 0.0352602
5269 1298 0.934361
2080 3068 0.83167
10960 2753 0.527329
11181 12524 0.757346
6067 5269 0.026762
1980 2955 0.0551459
4998 2145 0.231122
15423 3463 0.226007
4521 1171 0.296527
1815 10795 0.718555
5776 2795 0.113662
4394 308 0.786824
10033 5737 0.270575
11206 11788 0.780467
17028 1991 0.0792259
17121 9062 0.165368
5352 8476 0.98753
13222 15340 0.72262
270 1663 0.724755
2091 18032 0.253112
2039 8509 0.208121
19665 3896 0.833298
10082 3259 0.336062
129 3791 0.600643
11670 3845 0.646147
16404 7183 0.32287
16533 8741 0.12978
3270 17357 0.636797
10870 6120 0.134735
9355 1059 0.62672
17115 11064 0.898933
456 884 0.161847
10371 14566 0.0560019
12352 6088 0.439606
17609 10115 0.0369179
11113 7997 0.68079
12768 7161 0.77512
1007 18366 0.758152
10013 6117 0.908716
19240 5454 0.956982
12173 13725 0.890894
13861 16090 0.502357
3289 8250 0.472172
3779 5726 0.133032
7019 15604 0.318426
11096 1037 0.902002
4295 4139 0.879113
5381 4187 0.269318
5178 5873 0.0760744
18566 16295 0.229562
10110 17739 0.595687
19476 14870 0.0489097
3967 8375 0.412684
6595 4547 0.91707
18323 940 0.978071
7055 1801 0.681283
10629 3281 0.603195
263 6290 0.474857
3516 18766 0.827291
7190 469 0.709275
1177 1146 0.177896
7383 5630 0.832324
4829 6173 0.515801
3324 2204 0.0628806
6063 2954 0.794275
5977 16976 0.460862
7338 832 0.695204
5952 7292 0.681821
12011 17817 0.135118
12196 17156 0.406068
12955 16628 0.331797
19872 18744 0.938926
3032 3498 0.876825
12119 2828 0.711337
19125 19261 0.979229
7491 10702 0.344744
193 12549 0.637333
6542 11589 0.109499
913 12480 0.631887
9 18469 0.629647
3412 9173 0.824287
5542 1512 0.103904
13792 12215 0.0872656
18139 4968 0.637925
8445 1639 0.0485286
657 4010 0.315441
12382 4175 0.293131
6522 2452 0.860572
17984 9981 0.244964
450 3059 0.275059
3153 8923 0.891804
19227 19798 0.2305
9955 11361 0.181495
17796 4650 0.642714
12263 6157 0.189234
8840 11986 0.77946
1489 9074 0.776324
1970 17901 0.480352
1268 16634 0.412761
2841 14743 0.373444
12040 1886 0.895343
18140 736 0.69572
11845 7468 0.786412
11187 4482 0.0435923
7059 11471 0.372635
17441 5441 0.206
8415 13045 0.645782
8790 18163 0.641236
6029 2589 0.98314
4194 4596 0.200928
17375 18468 0.206399
10490 11647 0.869073
10055 9726 0.534387
17315 6048 0.48105
11235 7744 0.827704
3240 1918 0.0343241
2516 518 0.720173
2827 10650 0.589035
5777 13676 0.727102
16435 5053 0.603805
3858 10023 0.45649
8969 6206 0.549174
967 12414 0.741094
7467 10167 0.984297
4722 3857 0.095887
15423 14183 0.801199
10210 2988 0.349828
11197 7357 0.701214
17351 11114 0.442156
11331 19661 0.100942
16680 12428 0.0546713
11518 1564 0.505831
16163 3552 0.723012
5929 2128 0.0472526
19555 12110 0.384111
1309 10508 0.56449
14775 11205 0.94564
9464 5085 0.952467
7465 934 0.384846
9116 5106 0.449063
814 7533 0.892972
3462 12495 0.641156
6387 8463 0.285333
554 5582 0.00541155
1137 6497 0.151918
18514 5917 0.59154
5135 12686 0.0352996
11510 5937 0.689266
10189 123 0.812214
57 11615 0.16269
10924 2113 0.832641
5745 2625 0.757054
4854 18235 0.875899
3591 4130 0.806558
13422 7357 0.106178
14745 5680 0.562992
975 8390 0.742659
2003 17530 0.730271
10851 3387 0.579265
5324 2737 0.409965
874 9018 0.637941
5174 2699 0.672475
13979 1213 0.0516847
9556 3954 0.133889
13186 11825 0.191291
5008 3952 0.335683
9728 19692 0.330597
4032 3492 0.743526
8545 17075 0.955087
7387 2326 0.103237
8092 15600 0.848001
8187 9864 0.548394
7766 12525 0.293704
17255 3623 0.163817
1007 19179 0.507556
4877 10168 0.65761
1619 16575 0.188949
8295 16490 0.976193
4422 5942 0.13507
4658 5905 0.825998
4777 16513 0.664949
12569 9364 0.957077
11409 9624 0.243332
4489 5587 0.351954
19583 4615 0.333711
4951 8407 0.338151
3927 5 0.0858741
4778 12050 0.64319
8297 4765 0.0776648
6359 2041 0.796604
7117 15161 0.177296
11923 2026 0.187461
12765 16284 0.0327744
12754 2859 0.00827554
12342 1906 0.469471
6515 2397 0.786867
19794 2174 0.90402
12370 2459 0.95119
15484 2 0.382335
4428 6892 0.188619
1095 18823 0.329121
11954 6921 0.730588
7647 9557 0.0562543
9383 10022 0.906072
3604 2234 0.267951
6541 2052 0.949443
12701 6305 0.75795
6459 10127 0.218322
4555 1210 0.212079
13556 7772 0.255659
3472 5195 0.76736
15438 11708 0.998462
1882 9570 0.0583641
3660 7603 0.187301
19274 3157 0.323849
10182 1810 0.477669
3433 1271 0.105773
4168 12302 0.282371
12760 10753 0.291269
10035 12037 0.876245
9419 4236 0.334129
6938 9468 0.210835
17890 208 0.824238
4099 19459 0.295509
19155 5924 0.877262
12418 2981 0.270229
4398 7601 0.97624
1965 3147 0.333465
10948 9035 0.888621
12352 16231 0.754488
8918 7487 0.561377
3975 10987 0.831783
9950 1924 0.884396
8356 6317 0.74699
12587 9317 0.718298
6833 438 0.230544
19412 346 0.0316963
12979 8326 0.982578
7228 9227 0.00211757
1111 3320 0.00059616
3441 5208 0.598236
391 19897 0.717144
7663 14933 0.884133
13083 6308 0.629916
16642 19938 0.434101
15890 3817 0.184299
326 7672 0.252152
9881 12455 0.144835
15861 11273 0.0308324
649 6528 0.595181
7829 18881 0.279256
12237 17986 0.767949
8285 7200 0.521577
9488 19149 0.583939
806 11335 0.438566
19630 5045 0.819483
19722 2462 0.00868021
4306 15943 0.261717
11087 5395 0.370637
10208 3778 0.304723
7773 618 0.584286
4958 10425 0.11368
7538 12177 0.499249
15505 16841 0.768655
6897 8395 0.36782
8467 8985 0.918908
6934 1836 0.18675
682 245 0.904696
3755 10030 0.849643
18287 17653 0.245041
5422 3354 0.613026
14717 8129 0.299059
16536 6689 0.151453
19655 6229 0.0745469
4735 17554 0.918004
17062 9587 0.543939
14070 14410 0.52901
8438 10881 0.567051
11440 5355 0.102358
8230 15849 0.138504
7973 1393 0.338654
19828 9330 0.353189
14273 1734 0.984761
5493 16226 0.152359
15252 452 0.257579
12638 8962 0.585985
19698 6219 0.226375
6026 10784 0.390081
6532 2604 0.60779
18720 17651 0.867666
18965 16665 0.238766
16992 12306 0.650344
4240 6364 0.661985
2895 6609 0.0530655
556 705 0.325454
6918 10549 0.156309
14289 8828 0.202458
10822 15593 0.867781
10490 3267 0.527433
1002 10235 0.69115
2529 15846 0.366077
10714 14581 0.270195
10123 18192 0.625121
12696 2485 0.439929
4171 2151 0.732206
14295 4792 0.352846
8255 6632 0.528074
11800 5689 0.136788
12101 5986 0.396853
13691 12668 0.696346
9728 18238 0.598762
5644 2254 0.413914
8384 6491 0.525168
3875 9207 0.62234
13276 6100 0.165221
19871 2329 0.956077
537 19271 0.553202
15340 10462 0.130788
3308 16290 0.956744
16135 11462 0.403117
12345 10896 0.418282
18517 13654 0.0262006
7862 18642 0.421006
17675 1211 0.678668
12508 12176 0.270935
10531 15292 0.565824
17480 17469 0.652243
11645 7857 0.841013
5942 14665 0.672978
17931 2738 0.564115
9314 1397 0.585341
3380 5263 0.792743
19091 12569 0.664767
12520 2025 0.762132
1411 10292 0.196836
2790 8846 0.45683
5660 2560 0.241537
94 10024 0.230296
3745 593 0.184231
6566 18493 0.15855
4711 12747 0.638751
7476 6007 0.446166
7757 4662 0.176269
13228 9650 0.6168
15964 6325 0.491949
4384 2980 0.0688842
12242 11483 0.942711
906 3552 0.993952
7789 12492 0.281655
5680 4115 0.196102
18272 988 0.0507814
8194 10594 0.80721
9785 6797 0.853232
8945 3538 0.166696
9650 7631 0.60952
12390 9791 0.226143
9699 2433 0.844456
11027 881 0.160081
877 6104 0.215767
3405 12037 0.190951
402 12373 0.986489
18606 6699 0.821955
3047 6308 0.362843
14805 17525 0.416776
7512 8658 0.12978
10846 1587 0.049398
12058 11501 0.932248
11901 2409 0.548747
12384 4560 0.465272
8348 11809 0.0241057
3000 7398 0.00632575
15759 2796 0.365254
8738 8189 0.557861
19674 2274 0.954085
11414 12052 0.064412
11620 6922 0.932427
15691 3897 0.705309
11161 7786 0.0408131
19455 8288 0.079162
5218 2557 0.132253
10907 3767 0.675902
8933 11447 0.621593
1739 11404 0.858346
17313 7571 0.667232
5733 11471 0.555163
1166 2952 0.357463
8289 4085 0.264244
18880 3842 0.726532
10228 780 0.521933
7371 7195 0.918717
12889 3708 0.418946
2200 6219 0.83863
7899 14037 0.544403
624 4677 0.394352
7448 12408 0.305651
3230 18964 0.330939
4278 16485 0.801737
2356 19101 0.48105
6126 8441 0.641198
12905 9240 0.810064
18162 17501 0.24449
4494 11516 0.903196
6635 9510 0.194149
904 4816 0.388741
11520 18240 0.757157
7051 13102 0.296789
11270 17652 0.574821
2687 4105 0.954062
14076 1683 0.647017
19909 14494 0.542877
11558 14929 0.170859
13673 9667 0.223421
7800 4766 0.315982
7718 6127 0.310591
6426 4552 0.440373
16174 2545 0.452079
16398 4408 0.756622
6577 19511 0.137532
11376 1323 0.409388
4839 712 0.511454
5123 4815 0.00665496
1768 7159 0.924758
8029 11320 0.569778
2125 2480 0.8875
11232 12044 0.384584
12264 15547 0.580249
4576 10554 0.738837
13210 18837 0.191504
5910 11216 0.925049
19568 4739 0.0789716
11698 5896 0.462088
3624 18570 0.471947
2533 8785 0.331146
1549 17961 0.880527
15983 314 0.713282
6411 35 0.784441
4738 4105 0.708239
12177 4771 0.449801
3466 19554 0.493186
11615 9234 0.102621
3242 19366 0.903148
3837 9490 0.352681
12993 1262 0.291205
11110 5472 0.950674
1746 5814 0.177568
10171 4494 0.926749
12820 2790 0.67535
9208 5741 0.54066
11947 2291 0.89658
4479 12341 0.502144
4781 6974 0.107342
6088 11162 0.715944
1620 4949 0.654193
4614 18043 0.908386
13894 7479 0.574523
2742 15375 0.341822
4980 19902 0.0802268
3422 17693 0.704352
641 9766 0.62914
4057 447 0.232643
15962 6394 0.319406
17795 2558 0.54447
10145 13833 0.368927
192 19639 0.0305953
6479 5955 0.872782
19013 8774 0.678976
19492 11064 0.642714
1778 3579 0.452526
3880 5305 0.098658
24 6148 0.452008
6341 16491 0.336983
4915 12 0.323551
3398 12065 0.581781
4915 8949 0.975292
1989 12461 0.380446
12310 8629 0.789139
964 6262 0.701097
6728 8334 0.74891
1372 1755 0.821657
8339 2404 0.494464
5881 12786 0.605318
2074 5321 0.431815
5776 17819 0.40588
16617 11122 0.825454
15687 6926 0.10393
3472 2051 0.809871
2600 11399 0.426462
6900 14686 0.883649
19773 2129 0.571488
11286 1722 0.352458
17401 11405 0.743418
7962 2130 0.532352
16869 7883 0.794773
1931 5290 0.974914
6425 13659 0.643394
2154 4111 0.99873
11196 13952 0.176308
1190 3646 0.952174
5942 4913 0.799114
6602 12735 0.268544
11405 2963 0.493443
4589 10009 0.778262
8545 1341 0.400288
12110 9937 0.633851
6333 5089 0.673033
11025 8074 0.0128978
9369 7291 0.786002
15994 6770 0.48566
17972 5217 0.023517
5839 8888 0.950977
973 8615 0.790003
14167 19073 0.968956
7036 44 0.951711
11358 6851 0.876543
12497 11252 0.499887
16806 2475 0.130627
7950 16244 0.429467
19105 5710 0.471478
8256 6130 0.25207
14458 11714 0.973961
2178 4968 0.885149
10574 9268 0.181092
4216 6899 0.0737312
4331 16343 0.13324
17087 5088 0.709861
3100 2491 0.994042
18686 528 0.0999208
9980 10469 0.606771
5420 8892 0.436234
5603 57 0.483256
1590 8460 0.00225972
10842 7691 0.65168
4695 6749 0.246108
16003 10477 0.187775
2324 12941 0.051445
11839 13932 0.62234
2492 4822 0.333826
10938 694 0.676418
11564 12899 0.0628893
7507 5431 0.0945738
10884 3193 0.631222
9 17513 0.300965
11031 3817 0.0313257
10982 9554 0.19706
15865 15063 0.624527
3243 10062 0.616481
10099 6677 0.728779
2542 5909 0.713781
12758 1694 0.333798
9085 540 0.908347
7095 12818 0.642714
7723 2082 0.910638
4485 6229 0.170694
4201 18203 0.187826
10896 7396 0.0469885
5279 1583 0.309898
7606 12819 0.527433
3907 5035 0.081125
18537 18538 0.299183
13705 5630 0.957511
15779 11036 0.38295
266 4506 0.310093
2709 13827 0.0954518
5656 6772 0.53617
5585 19621 0.287015
16354 8724 0.906998
18836 5518 0.964637
3770 971 0.615686
6218 12128 0.69502
979 11729 0.798992
931 14219 0.293741
5324 8822 0.0754778
5089 9119 0.524583
269 6348 0.517745
9170 10212 0.60902
131 2495 0.407382
6065 3216 0.604947
8328 8728 0.642536
444 4542 0.495721
7828 4560 0.28246
10255 6804 0.309459
8456 5839 0.480696
12436 3391 0.137018
1200 4882 0.60196
6653 4441 0.337516
3452 10910 0.396387
8874 2216 0.282762
19134 6048 0.690599
9417 8414 0.400268
19492 4614 0.126864
7961 16922 0.615686
16662 10110 0.821851
3244 5884 0.158428
355 4222 0.53042
1272 10900 0.849447
15326 1068 0.767786
5148 17332 0.366837
5245 5516 0.972739
3583 958 0.247735
940 2050 0.105059
14809 14602 0.66871
8665 9215 0.733207
17578 1258 0.845685
12370 3469 0.778424
15347 18802 0.409153
9809 8117 0.857172
9656 7398 0.484684
4054 9190 0.721524
1769 17132 0.721525
11743 8446 0.860969
8354 6896 0.0780515
5209 1602 0.439608
3037 2728 0.248995
1055 12085 0.314693
1297 13990 0.561313
15486 1729 0.0780946
4963 10363 0.962102
19792 18441 0.265626
11338 4440 0.29402
8451 5294 0.807377
16497 13014 0.604506
9397 12646 0.463504
15061 4380 0.855819
7227 7031 0.93204
9266 5400 0.600402
705 1557 0.773155
17185 16607 0.47332
6174 7235 0.431765
4394 15165 0.5769
1413 11115 0.572761
5495 18894 0.720317
2763 12651 0.63614
3430 9955 0.974695
5657 314 0.0607565
4760 14204 0.512997
11109 9228 0.383116
5331 10012 0.452813
14007 7905 0.692495
3839 14864 0.212358
222 11171 0.207847
12677 1308 0.811443
6429 19413 0.107235
6973 15206 0.319586
15125 6509 0.821061
17032 5185 0.236269
5600 8471 0.588796
8094 13470 0.0233336
2426 15477 0.409247
14131 5466 0.372944
2761 16075 0.353189
5549 13558 0.01868
11467 9182 0.888516
16030 6396 0.28972
4113 9278 0.142483
4674 12660 0.541891
8988 5205 0.0424963
13617 14744 0.0355673
4898 6959 0.886885
8767 14103 0.386517
2163 17550 0.982904
11768 79 0.470448
18057 10435 0.406068
13675 6991 0.655419
4706 6427 0.122667
1839 19249 0.621466
6162 18497 0.283146
3838 15022 0.781217
10148 9719 0.130901
2962 11168 0.414299
9184 17479 0.00285642
11530 6712 0.683937
3957 8336 0.912625
6441 239 0.112919
16650 8023 0.577943
4093 13422 0.852347
12077 6024 0.0401318
9121 6520 0.714102
659 3994 0.61382
9009 18230 0.3675
12861 16364 0.375099
13064 4278 0.853946
19092 9341 0.476793
2183 14239 0.261175
12102 10909 0.313433
4847 9261 0.73032
8563 7377 0.707945
1100 6543 0.751556
8964 3212 0.356107
8137 9297 0.860015
15115 15563 0.45144
6663 15482 0.236115
2975 6653 0.642355
1687 8093 0.204429
6029 11978 0.86624
11711 3044 0.0793367
16550 3621 0.450463
7436 4357 0.45745
7949 12129 0.532639
6404 827 0.169777
17779 5328 0.243797
18811 17477 0.417904
4659 6442 0.604371
5278 11542 0.551327
12393 2371 0.465465
7218 2917 0.842153
4155 7296 0.648299
483 8382 0.973493
5593 5159 0.63228
11910 1801 0.125806
9937 11067 0.660066
15860 7414 0.155124
833 12547 0.0984945
6520 2608 0.715585
17891 11933 0.41934
12453 11730 0.619693
4958 7646 0.250338
4741 8729 0.847253
2677 9996 0.862088
11462 1443 0.96867
387 11450 0.474653
18188 1442 0.806142
3460 7395 0.579556
2195 10879 0.312856
6458 9596 0.131752
4255 883 0.39378
2614 11214 0.665206
11088 15212 0.185441
15058 9158 0.763887
14014 9890 0.057321
30 3524 0.841158
542 9598 0.885508
10399 4226 0.00373237
19220 7997 0.245597
5795 18989 0.953236
750 5582 0.314402
14088 4074 0.469924
17633 6309 0.604783
1653 12387 0.662888
5183 19618 0.57819
13922 10002 0.664843
6905 2475 0.155404
156 5830 0.255396
1111 3753 0.588796
4350 4909 0.838052
2204 13775 0.015544
5995 1299 0.288843
7377 4528 0.890718
3867 18726 0.334059
5940 6657 0.38295
17992 13131 0.689379
7122 3494 0.993734
12511 4261 0.371571
9192 7444 0.0493008
14468 17136 0.927729
10389 11245 0.853051
326 12744 0.188617
10968 19559 0.174999
6806 8891 0.985
12309 6912 0.748261
4798 695 0.0842145
13277 2277 0.593128
4590 7254 0.152359
727 9332 0.872547
16897 1865 0.887255
7724 11631 0.619469
17721 10014 0.74685
14265 2204 0.498704
19035 13684 0.84727
12516 16885 0.555997
13202 7804 0.197288
19585 11258 0.604783
7231 9637 0.951608
5861 176 0.280647
10130 18334 0.898982
13072 675 0.112137
4091 11613 0.348591
17307 2039 0.728996
7633 12745 0.685322
2188 12404 0.638286
601 3202 0.881886
11714 7055 0.465626
19849 1925 0.949902
14169 12242 0.355212
5157 12779 0.973441
15371 2977 0.0489258
6884 5033 0.182695
6777 1253 0.998462
15530 19491 0.731544
7812 773 0.0794897
9114 19216 0.494789
4606 12428 0.57074
147 16713 0.506752
11322 10138 0.748428
6559 12606 0.935778
16613 4283 0.110229
10686 10557 0.697542
4761 4739 0.425708
5553 13205 0.86113
1686 7882 0.547015
1700 5790 0.172604
6582 8869 0.63484
8397 7299 0.941687
3354 8696 0.695557
12580 4344 0.87003
12366 19976 0.12793
2786 4604 0.80779
10880 2117 0.106444
3511 7198 0.0721077
8458 3302 0.212287
12833 9767 0.302566
5175 144 0.258491
9591 18349 0.602613
3702 3602 0.520273
4742 13051 0.471096
753 11630 0.430581
10559 3536 0.934303
9160 16277 0.26611
14992 10664 0.919193
17037 5947 0.561465
421 4422 0.887875
4970 2724 0.946887
671 12273 0.0141288
3353 17641 0.662496
14717 18499 0.476991
12014 8211 0.882429
18893 5443 0.0775613
19284 7257 0.152507
3093 10553 0.180178
1998 3913 0.888943
12384 8087 0.104059
10059 17972 0.752659
6822 2627 0.62434
4507 14684 0.151198
14346 11729 0.671793
5460 17132 0.603805
9756 3263 0.713779
11714 10370 0.585612
8285 430 0.204214
10933 10241 0.798016
1120 16014 0.977862
15545 9390 0.17699
1653 9878 0.617058
5991 3155 0.755041
11569 969 0.161026
4690 9847 0.478343
5719 222 0.0979736
4696 6312 0.0671847
7490 386 0.148073
5494 8266 0.817255
9226 4026 0.222736
2080 11088 0.293349
17238 4235 0.0796398
10392 7287 0.578425
10031 12684 0.294994
6446 11044 0.368382
13560 10680 0.68725
5862 16230 0.247374
10210 10850 0.62914
12109 6033 0.912733
17432 8300 0.519305
3333 1582 0.178659
4550 7918 0.677486
16149 4826 0.562739
5351 2582 0.422293
17373 7016 0.96341
16279 3659 0.0234899
407 5263 0.137532
11993 4911 0.263996
10565 1842 0.231122
9416 19077 0.387249
7406 5099 0.596615
19752 8121 0.325824
10201 1838 0.0828744
15131 7533 0.806459
11020 9449 0.361496
13056 15346 0.622831
6727 14731 0.438574
16166 15744 0.279857
2475 16410 0.905911
10388 86 0.55921
1380 7967 0.893535
8552 14519 0.564009
3424 1799 0.890341
1963 1842 0.261976
7163 9365 0.450628
11627 14479 0.425067
10097 4237 0.260474
3881 19244 0.452752
6601 14173 0.695067
1230 8335 0.674654
976 6918 0.740058
8589 3039 0.381333
5831 8419 0.471126
17560 13940 0.413433
4851 2552 0.486226
1975 7189 0.398432
12360 14013 0.752577
12349 2435 0.350981
11061 16359 0.570167
15765 9505 0.354496
7542 18384 0.705878
9861 8129 0.687168
1427 1113 0.0314251
10149 1725 0.225675
9667 16882 0.212771
9606 3184 0.134511
11931 2696 0.448953
4606 15879 0.166082
10625 13895 0.712305
800 5236 0.00316115
2525 10583 0.428581
11224 12601 0.854186
9656 18661 0.132689
12228 18440 0.911353
9917 2146 0.400068
901 16211 0.29601
423 8559 0.378003
3496 4160 0.767576
3156 10306 0.241634
6388 19488 0.443794
9635 1264 0.0502609
6655 15236 0.944362
16831 19561 0.272079
10948 3512 0.981561
9996 2481 0.395501
10531 318 0.381836
4532 3431 0.295978
1139 9041 0.251505
4411 7634 0.980505
4982 8231 0.876944
1985 13493 0.0558309
8596 169 0.564557
6256 4555 0.634359
9603 16841 0.941687
1774 8720 0.512889
3193 5767 0.238891
2639 341 0.0693973
12248 9366 0.633494
8558 18567 0.0483531
12173 6914 0.649843
13483 8937 0.120489
2851 2659 0.951918
6103 2261 0.359224
7425 2621 0.13049
19472 17809 0.081786
10664 2087 0.337431
6811 1616 0.636035
8169 79 0.291951
15869 18488 0.243486
157 7690 0.584645
10321 17123 0.742318
15401 7508 0.69514
4859 16497 0.966363
35 8692 0.356121
14666 15258 0.827185
5556 1887 0.688213
3538 8943 0.847842
6343 5709 0.825971
13459 2197 0.403186
463 8024 0.835345
13005 6769 0.285934
7798 5844 0.836328
11024 1337 0.309352
2041 5704 0.737635
6902 11289 0.0311405
11739 12283 0.633834
8218 7223 0.208043
7259 4349 0.466963
7362 3153 0.168893
7167 6738 0.448201
7174 15326 0.889225
18581 3624 0.0771718
19357 16668 0.0172576
11996 3381 0.181305
4704 2691 0.456836
14305 10168 0.128977
14451 8589 0.0569303
15619 12109 0.294184
6855 7935 0.578792
3723 17500 0.138935
3279 3998 0.328088
2185 10577 0.404753
11836 5845 0.903947
6449 5529 0.789254
9470 10977 0.443274
3932 7578 0.0938964
8362 1520 0.412557
12467 7503 0.205208
16917 2643 0.449758
7568 6731 0.812237
18908 10685 0.0742968
2859 5412 0.319326
4576 15690 0.573537
10775 18139 0.817732
3352 18667 0.390052
11365 4410 0.957271
2570 17870 0.773081
4455 11512 0.42989
16629 12230 0.708239
7914 9861 0.508428
382 9566 0.0869675
15204 15582 0.782404
11897 6386 0.670383
14368 14320 0.360387
19354 3139 0.170948
8041 4267 0.118505
16855 147 0.523765
16661 12146 0.629233
4588 4860 0.693083
15938 7833 0.049221
12639 11174 0.664822
11536 2215 0.628356
13090 11962 0.940213
2688 3192 0.842265
13177 4870 0.65761
6550 12796 0.719127
6861 11002 0.561111
3256 7330 0.0051381
15778 13189 0.366956
5306 13693 0.399813
5287 222 0.543877
6364 10642 0.250195
9697 2367 0.783073
9364 11889 0.989546
8511 15040 0.0974918
6793 6270 0.492774
6987 776 0.531495
10007 2601 0.170095
675 5488 0.443762
11544 13305 0.164032
4889 2223 0.253506
16635 8684 0.514225
514 16398 0.459102
14724 10777 0.56577
2009 11214 0.214893
4954 6628 0.220993
15594 6162 0.322113
15962 8065 0.556185
968 17189 0.286962
6928 16982 0.510712
6683 8990 0.493738
11918 1878 0.340465
17997 11989 0.176491
13421 6385 0.952095
1635 3506 0.256111
17760 6087 0.374329
8994 838 0.0865018
6091 1644 0.246745
3971 6315 0.587477
8379 1130 0.716086
9096 12409 0.811443
2261 8392 0.079422
14951 15424 0.998155
6417 10655 0.640347
10514 4239 0.898956
9857 16956 0.59986
8178 9610 0.825998
8012 17155 0.40529
4827 6603 0.190739
11542 1049 0.958224
7982 7926 0.877029
14151 3803 0.0293507
10550 9848 0.240292
9200 12209 0.450835
1709 10944 0.58823
16510 3117 0.807375
11509 13433 0.672061
5935 6536 0.96744
4542 2593 0.221197
10531 8621 0.0652411
2931 18229 0.183849
74 4976 0.688542
13308 17303 0.147338
4335 17764 0.793293
10746 8902 0.0164154
9566 2142 0.145668
11697 4702 0.9058
1864 12798 0.627232
10798 9458 0.0700558
1092 8226 0.479957
12358 12979 0.722736
5415 118 0.633261
1298 1572 0.141234
4182 2972 0.630569
3553 17684 0.174607
7681 19664 0.351678
10807 12263 0.622731
2422 1483 0.0680365
3330 10759 0.255929
7493 7552 0.286406
2926 3893 0.360572
2599 7871 0.843427
9214 3092 0.809165
4031 17807 0.525477
19358 2798 0.418689
4070 11049 0.314145
8443 14017 0.566998
7143 6797 0.417183
11284 15863 0.790621
14449 7199 0.760423
14061 6438 0.1467
3313 14009 0.600434
4395 7081 0.470629
2504 3509 0.935316
2988 11326 0.575339
4095 2876 0.172113
4027 8591 0.843013
9784 2569 0.43907
16072 2250 0.70987
10777 572 0.456891
11010 3438 0.307393
12635 12486 0.957505
11788 9364 0.928321
5815 17764 0.21357
14427 14722 0.795502
7482 9998 0.190438
5806 6809 0.575583
4821 3252 0.861926
7633 4315 0.439953
9442 8704 0.0699105
3916 16576 0.284612
11132 6599 0.454946
1091 16939 0.169172
4660 9070 0.448783
1054 3858 0.21162
1613 11921 0.633494
14255 13519 0.205623
5234 5637 0.17934
9921 13545 0.0816094
10898 5308 0.768438
9495 7687 0.597104
15228 13152 0.644967
1123 6396 0.844722
16695 5026 0.490118
19620 9579 0.826979
9861 12553 0.152486
17996 15407 0.351678
5774 11963 0.0520799
3998 12368 0.914585
1004 9203 0.339799
16129 3592 0.294603
18139 6406 0.891912
1580 19130 0.548111
6969 6723 0.358228
15513 8165 0.0409465
9971 6897 0.224836
14326 7119 0.0338564
15475 3127 0.992119
9736 12055 0.208475
2819 2216 0.346247
15068 12623 0.922542
8542 5854 0.320944
13830 19703 0.195083
9725 12026 0.731988
268 14498 0.150308
10469 929 0.398707
17155 5107 0.488464
18982 4950 0.0833086
2092 4684 0.113319
796 19473 0.764595
6170 12227 0.326779
14090 1205 0.161761
88 6377 0.605367
7692 6210 0.0488791
11280 11218 0.110637
17916 12005 0.806568
10377 1597 0.670895
9577 3400 0.512815
1561 19761 0.725101
4887 5293 0.78515
5844 10402 0.69898
1705 1948 0.537426
10111 5879 0.035965
19580 5709 0.916553
10161 718 0.277344
11312 3334 0.142481
7339 12495 0.25316
80 2789 0.291435
19289 2287 0.195697
11359 10584 0.100416
6225 1250 0.081282
12590 1772 0.698036
10880 2361 0.592803
11165 7074 0.425713
17432 11987 0.944745
45 6075 0.399933
8355 633 0.321168
19201 12829 0.581629
10193 5309 0.570903
10282 5654 0.741094
62 9525 0.563593
16171 6260 0.0565635
4299 3031 0.635923
11646 2453 0.203636
4842 7825 0.985408
19273 9208 0.982352
3179 5589 0.36782
6776 5009 0.249535
16356 4424 0.870933
6229 1246 0.64908
16064 17456 0.241048
6296 8591 0.360396
12316 460 0.419036
3049 7822 0.168893
514 7845 0.753841
9543 9295 0.802925
14339 15512 0.502403
14508 4352 0.451312
11466 10858 0.090276
12252 7822 0.50504
7148 10640 0.371835
13328 9008 0.6286
14139 12105 0.944437
12363 6294 0.881027
6101 9754 0.288843
8939 11313 0.535812
10924 2256 0.0531294
2026 7293 0.119929
8362 12403 0.396128
7551 1346 0.0546947
11635 10060 0.573995
10448 4323 0.683037
9145 15285 0.920261
18816 6288 0.413609
2573 17873 0.270229
9600 3510 0.214862
15586 11588 0.178747
5577 6095 0.11739
17434 8129 0.331023
11155 18053 0.0646112
1630 11445 0.696121
12087 17790 0.717638
496 17323 0.649637
3785 14355 0.337853
3982 9851 0.506918
1929 3177 0.169491
3774 2554 0.777814
4625 12359 0.984233
191 4994 0.0251225
3886 8587 0.781116
3004 5881 0.125234
12797 19579 0.821975
5508 2573 0.367659
19695 15543 0.169858
867 6505 0.185458
2181 7155 0.633329
9728 7173 0.533764
7258 17347 0.700479
5987 18192 0.953993
8349 16723 0.644009
7453 18228 0.640304
1035 5822 0.0628303
14943 14596 0.381028
9372 4228 0.139656
297 2463 0.588949
18193 12757 0.239822
4003 4531 0.940495
6232 19154 0.505986
11815 7280 0.79973
3953 15844 0.133032
8226 9423 0.114485
2544 588 0.321811
6930 1683 0.879687
9143 4545 0.872672
5337 7877 0.37692
9956 14307 0.497245
13079 12213 0.945719
11186 8485 0.779644
5120 2570 0.747404
7546 13761 0.815896
9434 12446 0.639219
2672 14450 0.0967802
10649 4487 0.53755
17426 2178 0.915871
3108 9298 0.684466
8866 13520 0.177989
4341 4432 0.208042
7991 16283 0.00996652
16557 14044 0.718916
4014 298 0.822148
9304 10358 0.18675
16428 11965 0.141749
765 5097 0.113017
13069 8489 0.511452
4229 6499 0.636456
1753 11754 0.411342
10325 1057 0.638307
7481 8513 0.619864
18677 5741 0.237182
9506 11514 0.466796
17355 15926 0.93099
11302 10813 0.877029
12061 7451 0.710911
7097 13753 0.589256
6386 7412 0.354391
15233 4467 0.637649
5976 8292 0.0934168
2993 10758 0.88001
12152 8805 0.673748
11804 17004 0.490265
1468 6182 0.536737
7017 11800 0.588105
4236 13876 0.275944
723 5850 0.270195
1689 7740 0.557526
9743 12027 0.663791
6764 13649 0.33553
16656 2171 0.924495
12104 14759 0.752169
5427 8707 0.9292
12649 12552 0.997265
12721 19868 0.51282
287 15506 0.970561
5817 5505 0.533936
9039 11625 0.433371
2474 4994 0.301983
17443 9217 0.0576167
8522 13137 0.00714794
2089 11562 0.601141
8502 16388 0.596474
1997 6515 0.694387
10919 7410 0.637547
766 2828 0.846587
13382 17247 0.950392
9053 9852 0.398753
10706 6340 0.284196
1667 91 0.346495
16434 6841 0.299888
11676 8544 0.676638
6 10562 0.800508
9823 8418 0.103589
2499 3733 0.762122
3992 15681 0.982351
2127 10201 0.599938
9072 9304 0.231336
8899 18496 0.0740873
8374 7438 0.32287
4406 2818 0.594769
13277 11782 0.218099
6394 1459 0.937887
7435 16305 0.455691
2870 3887 0.0769015
1308 9081 0.291139
14519 285 0.957847
9519 10011 0.417491
3591 7380 0.0501994
210 15783 0.127226
15036 1338 0.323452
5371 1938 0.723189
13483 11621 0.565417
7711 7341 0.530879
6367 16063 0.424975
19266 8545 0.0158415
8735 11222 0.511535
2704 8600 0.122584
11205 7181 0.781001
10891 10421 0.966508
6807 4229 0.300794
5032 4573 0.790967
265 8546 0.922871
15929 3367 0.290427
12285 3325 0.193624
11150 403 0.200603
4503 1329 0.524676
838 7332 0.221258
7336 1840 0.52901
5143 2062 0.172604
13015 3978 0.269827
19026 15663 0.945945
18679 3835 0.88621
9484 8578 0.0969189
10971 7475 0.636224
3682 11027 0.922691
545 14292 0.452696
3093 14524 0.0748238
9192 13989 0.679456
9728 5000 0.969079
7307 1346 0.567506
16344 11167 0.00184792
7621 11076 0.472208
9018 18255 0.463267
10268 4852 0.35845
11474 16614 0.819516
12816 6621 0.219107
12748 3198 0.875816
11016 3012 0.939727
7352 6459 0.864648
7911 5376 0.55034
3023 16261 0.429003
19345 11697 0.64319
8179 10835 0.158765
19363 12787 0.871728
15730 5241 0.972469
5232 1736 0.944238
11878 17250 0.174532
19809 12055 0.356182
8190 15050 0.103212
5745 8837 0.515484
3777 13535 0.815893
14270 6902 0.263311
1610 19377 0.81382
13581 2846 0.376775
12160 10560 0.724926
17073 12241 0.841354
14609 3894 0.0427184
10699 19712 0.735539
1032 17190 0.451798
10340 15447 0.303205
1568 19550 0.546056
4982 7629 0.305349
6724 8094 0.282476
2911 12276 0.266061
18712 3545 0.81104
17612 7836 0.387986
11273 7084 0.972075
11546 6538 0.521628
4659 5038 0.702409
4353 14385 0.46633
12004 12632 0.118455
13390 1877 0.927592
7498 2584 0.397215
11833 10267 0.938298
6866 13966 0.789905
12194 16563 0.524262
1281 2553 0.422382
6119 15742 0.994659
11431 7005 0.313598
9341 2133 0.791078
6190 11230 0.626893
9852 17616 0.623553
439 10801 0.826649
2968 17817 0.892575
19462 12411 0.804526
2745 2152 0.474402
9566 2471 0.0617797
15625 11279 0.361865
7427 17904 0.344744
6472 1418 0.399795
15626 4723 0.0232846
18809 13101 0.207501
15468 14525 0.202386
6333 703 0.556144
12384 7348 0.956438
6621 5118 0.207589
2528 17981 0.146475
5764 16624 0.443753
6717 16106 0.360572
1196 3948 0.147233
10268 5954 0.168375
6161 99 0.40581
7842 6026 0.685576
904 11441 0.187383
7723 11577 0.733698
2142 7627 0.447364
3538 6058 0.620502
16887 3266 0.148353
13646 9417 0.295258
5613 10774 0.5497
978 15616 0.388428
731 1188 0.256145
3198 4879 0.114707
16861 9668 0.86477
17012 19121 0.403792
17338 8545 0.88292
4083 12515 0.605132
7712 2637 0.0646414
16469 1914 0.396563
8108 3182 0.0110181
8509 7357 0.93048
16 4860 0.47062
7548 14206 0.159983
16168 19142 0.836394
6295 4293 0.0129113
2038 16459 0.567914
4949 10501 0.364882
5167 7167 0.840166
5575 14266 0.180394
11932 10938 0.904509
11824 3360 0.429215
10636 9298 0.414939
10961 10533 0.788929
17858 17918 0.0792259
10590 8298 0.35865
14895 10805 0.450175
5264 5576 0.126409
6021 13174 0.229505
6287 8260 0.195756
16857 8143 0.576283
7233 841 0.109255
9568 2406 0.339411
5439 15563 0.619864
8614 11256 0.23726
3343 2356 0.321762
15982 10074 0.986489
4799 7760 0.639453
4055 5608 0.569746
18756 11458 0.807483
1384 6296 0.238993
1054 8145 0.383247
19053 6917 0.355655
11204 5073 0.48924
7368 6125 0.796562
1806 16326 0.796483
1133 11916 0.725266
4557 11537 0.163698
18330 14688 0.777623
4838 5806 0.753841
642 774 0.0900019
582 9897 0.933899
3615 6314 0.591764
3497 6543 0.183844
6649 2023 0.874688
11756 1871 0.743459
19786 4799 0.843634
1449 3300 0.447502
14096 404 0.365976
13437 9645 0.344698
12136 1066 0.50588
3885 8465 0.058622
8538 10182 0.99692
5775 6009 0.928072
1980 18647 0.873147
5947 11720 0.0124197
13986 20 0.427763
9524 2264 0.673353
9122 6018 0.417737
11460 9169 0.82688
8656 2975 0.70441
10074 8119 0.00714794
11277 40 0.433424
11892 19463 0.319459
16015 6490 0.277642
1793 19181 0.618713
2587 1647 0.548297
3578 7845 0.191259
16654 10366 0.991117
6534 17612 0.937136
13538 2679 0.574916
14551 2034 0.168375
9539 1403 0.893002
1627 1405 0.692777
18241 2266 0.653848
460 2405 0.305107
2584 14626 0.640465
904 1490 0.198589
10042 11652 0.664273
17136 13394 0.853523
1757 12125 0.86989
6771 1328 0.38056
15162 964 0.547986
5468 6928 0.248629
18442 1907 0.180152
6742 3206 0.817925
12864 8011 0.207505
9559 139 0.975061
11940 3665 0.789328
3994 9604 0.248198
7674 11465 0.962449
8567 2745 0.686187
9660 5872 0.977807
1620 210 0.845097
17747 5403 0.828398
15283 16601 0.762451
19694 6583 0.103416
392 12156 0.80013
9041 2375 0.173586
11439 9127 0.720358
13230 648 0.446987
4631 17256 0.952863
17523 9655 0.48561
13638 6889 0.0948709
13947 16815 0.393083
16784 14295 0.602866
2805 7493 0.143792
17300 6473 0.825842
7061 3030 0.14119
11088 8286 0.674308
8748 7570 0.60965
18546 8311 0.269233
19014 13950 0.0429743
1009 17395 0.212196
9055 5143 0.900272
8348 5546 0.578996
6452 6506 0.576406
5758 12341 0.0791478
2109 12234 0.961934
1479 19078 0.422931
6983 8297 0.590255
2524 6767 0.245958
6336 17444 0.299619
4671 3228 0.475383
19540 15390 0.129564
6376 1399 0.92716
1510 3474 0.572482
2719 3530 0.685182
17555 2746 0.95592
5681 3629 0.576429
13089 13273 0.753701
249 3774 0.74619
4000 8814 0.401883
5170 2004 0.298354
382 9485 0.727333
9479 9271 0.190607
17459 771 0.573792
11937 14899 0.379052
5869 9074 0.906576
6442 9589 0.244964
7691 6532 0.935506
13472 9140 0.714926
7896 9262 0.632851
6200 11203 0.66629
4362 15943 0.315343
11547 11769 0.995363
19682 5506 0.512997
1104 5727 0.021107
13376 5402 0.17498
7850 13323 0.884133
10662 5843 0.38698
2614 5729 0.193503
268 18927 0.80779
7869 14871 0.834401
10768 3656 0.449051
14494 10356 0.690299
13607 11145 0.69937
1311 14488 0.764347
5185 13662 0.931887
18333 1195 0.825304
12258 9397 0.634838
6481 17847 0.438761
7635 5246 0.141152
15894 5601 0.310133
6733 1418 0.0240289
13308 17083 0.653112
4794 4378 0.203321
3706 7305 0.454704
8275 13289 0.650071
8152 9048 0.414287
18682 3695 0.211563
10468 12188 0.450628
14405 15987 0.181307
11253 9236 0.344389
6094 13440 0.565094
14189 2281 0.348851
8198 10365 0.995324
1457 7236 0.748601
6009 8776 0.737356
6079 9136 0.763394
8009 6563 0.848143
8863 1908 0.353291
19630 4731 0.727269
3959 19012 0.489321
6629 9891 0.650194
18064 7846 0.429317
1965 11003 0.590738
3532 12631 0.807483
9658 1557 0.95718
11076 12375 0.354042
1294 2880 0.591838
13303 11103 0.45809
3955 9805 0.155374
9456 11401 0.949362
3178 4764 0.838737
9537 7297 0.140276
6712 5281 0.26105
19967 12790 0.783678
9205 8784 0.0479602
14927 11981 0.427631
5550 15503 0.346347
1785 16285 0.941766
3314 5375 0.252513
5244 515 0.397548
16833 17198 0.0410427
2118 9323 0.0502609
8334 11437 0.0605907
4015 7528 0.894263
11113 3177 0.24751
7357 9248 0.133365
4577 15874 0.745559
703 1713 0.469674
10339 8926 0.662333
18666 5058 0.385893
217 9049 0.0588493
2158 19161 0.545607
19823 13861 0.235603
12572 4712 0.359198
3354 16532 0.381922
4621 10261 0.633174
2330 12557 0.13566
5043 2596 0.636224
8223 9536 0.0180464
3742 15518 0.147233
11450 19976 0.203004
12732 10075 0.0638561
15140 19192 0.796486
11579 9379 0.106918
2786 5025 0.622388
6080 424 0.0307173
11874 3312 0.638817
18682 9862 0.101287
13390 769 0.714095
19639 10856 0.176308
8694 5704 0.741983
7715 14773 0.0727079
12541 4721 0.668594
1486 4927 0.867706
339 6632 0.142018
8964 242 0.414157
9955 9010 0.203099
6883 3141 0.395707
3076 5883 0.248859
6393 10134 0.883607
5804 1963 0.418131
12492 14705 0.474904
2671 3738 0.868434
848 5023 0.271012
3189 18249 0.339081
11245 3512 0.30639
11512 15205 0.544678
11092 7941 0.751804
5975 5030 0.24814
2243 12006 0.0308039
5440 8782 0.681862
8508 64 0.935363
2156 4018 0.340582
7228 17475 0.527965
9638 817 0.0917121
9161 18074 0.145307
12984 3042 0.456891
18342 1824 0.161602
10371 5226 0.974764
16274 11028 0.558257
14015 19761 0.938222
12046 13493 0.0841653
16667 5822 0.0546742
10844 10980 0.00435422
2628 2141 0.721166
8439 7587 0.722096
19466 13621 0.488659
8140 231 0.255588
9601 7643 0.449543
6897 367 0.810835
6560 4760 0.437681
19638 7856 0.00275084
18411 7274 0.166203
3790 9394 0.248149
2503 1368 0.171171
1025 6568 0.864407
11043 6420 0.0277021
2144 17769 0.845483
5336 9355 0.91799
3526 13292 0.99633
2854 10281 0.408336
6326 17202 0.609123
11140 8431 0.426474
1477 1742 0.497182
17299 1217 0.110241
7272 2718 0.42832
7249 8319 0.484096
4469 4774 0.888704
19377 14168 0.838548
10105 10409 0.492497
679 18285 0.730946
13122 5833 0.361496
3562 9992 0.76466
1583 8233 0.895724
12378 7412 0.620196
1021 2797 0.46175
19990 2757 0.393738
8236 7440 0.685673
10346 4316 0.853523
2757 10734 0.26435
13701 8508 0.464772
9689 10920 0.502847
9861 12469 0.112528
17575 12689 0.309329
6475 4921 0.987512
4349 19798 0.56665
1373 4946 0.719063
7776 10315 0.486227
3082 2627 0.807483
11583 3337 0.0358548
24 11458 0.717705
11330 15814 0.566969
1875 2694 0.354496
8263 7610 0.18976
7193 13070 0.608534
19719 9678 0.91097
8341 1174 0.596139
5587 3275 0.638536
718 11682 0.101485
9529 9574 0.947126
18826 3426 0.226566
8922 12229 0.00133287
15207 8082 0.99657
7523 14951 0.0654768
7599 3424 0.561945
9685 19608 0.962974
10991 13701 0.0201351
3019 11131 0.637549
6937 9323 0.604028
3544 3428 0.796548
13016 3222 0.663155
6562 1025 0.138548
4321 17852 0.262289
11066 7250 0.735635
11736 15459 0.311429
4181 18803 0.108773
2944 7951 0.681682
2044 19209 0.117386
14338 2099 0.46672
16065 11196 0.0530974
3716 2757 0.42169
10560 221 0.213029
16002 13287 0.140061
7520 6311 0.608175
8756 5515 0.0822726
3854 10629 0.957807
4487 16393 0.0509096
7773 5671 0.121873
7110 8916 0.664045
3339 12722 0.76454
10326 2485 0.248593
11731 9800 0.264916
5483 15958 0.338573
8061 3305 0.218791
8940 4098 0.246115
12450 5406 0.603157
3786 583 0.569449
12732 16320 0.448783
6273 7595 0.832769
15414 5125 0.00994143
277 7226 0.992245
18940 17323 0.053271
10751 17274 0.233687
10050 6216 0.776511
11248 11938 0.182435
12719 14503 0.289625
4224 16234 0.746584
1457 15950 0.876628
11751 3362 0.99078
18863 7939 0.0859889
10055 14213 0.265802
5310 7516 0.105419
13053 10425 0.180711
619 107 0.524127
12676 19400 0.509019
9619 18568 0.880639
1366 5997 0.394037
2760 19226 0.262877
4215 2059 0.0884384
3633 19173 0.687173
7098 4812 0.508362
7413 765 0.999393
9118 9863 0.49704
4932 5006 0.828213
19627 10930 0.574043
600 17177 0.719835
13104 6976 0.0215412
5988 613 0.282362
10557 12478 0.150183
7869 7493 0.984992
3550 1719 0.429831
9417 14888 0.0450538
13352 13863 0.0918955
18792 14389 0.368503
4031 3203 0.223418
4778 700 0.743281
4030 4900 0.823844
5208 8077 0.555536
17421 7017 0.0157113
9269 12053 0.107034
11503 11171 0.2359
7076 959 0.66023
12545 13453 0.516331
3407 9220 0.793372
1555 392 0.518929
13088 804 0.14353
16672 14390 0.190212
3081 6667 0.190858
4692 3097 0.33501
17714 7174 0.878478
19202 932 0.643042
12420 8774 0.404631
14211 3163 0.822538
7745 10575 0.706589
9593 7873 0.306813
9774 7344 0.894421
7364 8387 0.50173
15996 13521 0.0469828
12620 10046 0.405084
10778 5958 0.463312
5051 1302 0.668996
5224 14451 0.328564
8571 4504 0.0574167
10876 8369 0.269033
13621 5828 0.00132282
6353 16745 0.990297
16460 10284 0.844971
3084 3047 0.959101
5893 4320 0.00591371
12221 9524 0.725521
2393 18790 0.405912
287 3924 0.847769
13267 303 0.619406
13489 14918 0.540098
92 14069 0.0439645
9380 4875 0.79471
13123 9920 0.0807506
4677 773 0.103209
7677 11419 0.0542927
9560 13370 0.738551
1375 1027 0.741914
5261 4568 0.882364
183 12285 0.127358
1390 629 0.133772
3781 2648 0.589872
14905 6471 0.250536
10459 15689 0.780327
1783 14552 0.555988
10253 10150 0.579076
10447 5186 0.164454
5355 16770 0.334131
18889 7022 0.122946
5367 2522 0.790692
3394 3244 0.391273
3169 13568 0.856746
11233 18155 0.744043
1630 3796 0.359931
4186 4109 0.732222
9916 6586 0.951607
3136 13975 0.774212
11110 1100 0.537219
10584 17198 0.410761
5606 6502 0.958972
3181 19699 0.122946
4804 2447 0.212549
4782 1531 0.847627
1484 3460 0.321762
5163 17927 0.828847
4920 7635 0.863482
134 6391 0.657367
6595 15075 0.576115
2288 10832 0.0961235
8675 2729 0.273716
2521 11775 0.61636
8302 12294 0.131192
14261 6293 0.814861
3995 3787 0.39369
14234 9062 0.24373
4095 6782 0.0656759
18839 9060 0.397757
12726 1502 0.640703
15003 7063 0.32627
3846 12485 0.307669
1086 7375 0.517208
196 6681 0.128179
10394 5580 0.703561
1347 6817 0.380502
2654 8293 0.801519
9910 1114 0.639486
13512 17085 0.6357
7725 2200 0.555997
16237 7818 0.852282
4190 11529 0.431354
18474 19740 0.905911
12388 7644 0.0814326
18863 5563 0.88001
15654 12598 0.904492
10156 7160 0.993216
17122 428 0.0779267
1576 8294 0.594337
4352 2025 0.143922
12499 7583 0.949332
10055 13692 0.477486
8909 3479 0.893514
6124 10925 0.733048
4599 5246 0.427468
19027 9818 0.533337
6269 14449 0.454104
4780 5057 0.805451
10717 3705 0.289826
12023 9854 0.492729
16098 800 0.7217
19455 2222 0.452053
5047 12432 0.474063
13849 1269 0.370055
394 5451 0.0826626
6129 8875 0.658965
9915 15835 0.124466
9494 2799 0.835424
8745 16664 0.642639
10975 12042 0.468833
15836 13560 0.28246
7400 6561 0.664328
9936 5781 0.333042
7803 16118 0.885404
3074 7927 0.118713
1713 12438 0.265084
1859 13560 0.569811
6385 10340 0.767354
12221 9759 0.566336
2562 2306 0.782331
10745 19156 0.610831
2503 6208 0.343991
4894 2727 0.0238795
2130 16833 0.945354
7042 8984 0.904347
11143 19945 0.723861
4987 2944 0.45115
2765 7870 0.992311
18638 11338 0.0477154
12877 14960 0.202326
10153 3489 0.671319
7557 12685 0.762368
415 2366 0.380784
18281 13864 0.962606
9254 17144 0.754883
1381 11149 0.498102
12624 2350 0.556772
10096 1507 0.910786
1829 1415 0.440957
16348 6380 0.842687
16849 4152 0.784327
10435 15083 0.866724
11974 2516 0.0565054
14243 7852 0.488839
14559 5707 0.279391
11456 5530 0.475751
5484 2753 0.210331
7095 2071 0.623271
13046 8971 0.647242
9562 18805 0.314778
10174 4722 0.0470024
1523 11262 0.997876
15720 1099 0.139159
6340 2870 0.408857
6150 15127 0.39371
7333 12831 0.424748
12720 14573 0.397988
12236 8942 0.454618
2651 6736 0.165698
4913 12253 0.659963
11041 209 0.459655
12090 10201 0.0314942
8074 10788 0.92706
13306 8154 0.0172859
1457 8745 0.0898162
17902 4151 0.478737
8482 9499 0.000305593
8426 4979 0.690256
4479 2496 0.366769
4461 6906 0.156417
17542 15505 0.972656
3865 1000 0.445709
9370 9695 0.832922
12425 3738 0.861387
7157 4109 0.690473
10672 11568 0.254804
14025 12206 0.275773
2267 3131 0.963428
881 10717 0.179554
974 11729 0.612272
11418 13393 0.273283
4290 15055 0.060108
19856 5777 0.126166
6336 282 0.384739
11735 3208 0.94078
18168 18673 0.755111
15117 15264 0.492411
2332 9711 0.517148
10660 10820 0.0796774
8359 17000 0.441641
5809 13244 0.688352
9172 16967 0.497626
9585 13512 0.376339
12034 15318 0.99948
1782 10229 0.533764
15251 16637 0.161197
12171 1113 0.382435
5912 9081 0.437028
5440 4941 0.191195
2840 17873 0.556393
474 10975 0.0418358
8528 9460 0.0985597
8468 4382 0.583836
14725 14990 0.918058
18934 16523 0.173586
4205 10070 0.0456057
2535 9645 0.29276
6331 4826 0.389935
8673 16322 0.94149
9030 3580 0.766987
14117 9502 0.278457
12496 16230 0.186904
9579 7437 0.0966044
14260 1851 0.319749
12839 12935 0.0654618
10647 11869 0.79119
25 18769 0.727022
2748 8298 0.752347
5164 19896 0.13537
11493 7611 0.354773
6154 5453 0.418946
1208 1688 0.786455
10573 73 0.384689
15114 8258 0.173935
15761 6557 0.603352
16737 15447 0.00582229
7144 7475 0.30458
385 9395 0.626306
18512 986 0.353594
14717 16513 0.956874
15562 10871 0.400432
8595 11504 0.197278
17388 13900 0.96252
19932 16125 0.55635
17699 4019 0.805786
19303 19308 0.296866
3990 14242 0.826212
4931 11699 0.260582
16626 16728 0.297987
2212 16763 0.517956
1165 10150 0.707079
4477 2637 0.59042
5139 11340 0.298572
19887 9584 0.340717
17094 18931 0.286962
1578 17295 0.0642523
6682 19539 0.810898
17961 16170 0.372458
892 17062 0.126597
14408 2514 0.137018
10112 18778 0.639322
9522 11269 0.585828
3882 5258 0.889739
9409 6905 0.991132
3754 19466 0.247139
12506 10555 0.500017
811 2694 0.266345
4946 5765 0.707039
2345 16266 0.230875
5729 18172 0.615589
5321 4570 0.929388
6051 13320 0.92494
7377 10800 0.0228749
16207 18336 0.443583
3578 10398 0.887943
11684 12036 0.226943
2014 7711 0.345056
4976 697 0.459621
17770 15001 0.695131
5206 13643 0.674156
14745 9925 0.443341
3660 9166 0.649495
5881 11977 0.469471
10638 11441 0.142489
1717 3878 0.845356
4220 253 0.417693
599 5 0.494466
631 8853 0.734518
11781 10294 0.398529
6708 8955 0.787243
15031 17738 0.617376
2361 4686 0.774837
5476 484 0.456014
15039 709 0.377374
7805 9056 0.223921
1380 6427 0.599973
12766 5260 0.115884
6940 8963 0.0849029
4301 9868 0.178319
12474 8030 0.618207
8481 1667 0.859016
7838 8458 0.421029
1493 5794 0.57073
5210 12044 0.877886
17701 6308 0.682933
6258 4871 0.511406
10552 9856 0.188313
10856 3235 0.58666
12691 17030 0.633977
3161 14553 0.276631
18064 5567 0.757543
15672 4865 0.192706
2306 9219 0.505185
2009 3380 0.0334146
9957 3891 0.0542039
7464 1817 0.845916
9849 1400 0.457217
12180 11339 0.434101
1390 8076 0.153489
10376 8860 0.842687
15225 9086 0.00162936
17249 9929 0.357435
39 1431 0.958311
1496 8257 0.00025694
1293 7789 0.0921158
5956 5992 0.585447
9746 8331 0.0940664
1205 6626 0.253643
4167 8685 0.713282
18446 4873 0.413027
12972 19368 0.810071
9097 7668 0.494466
10135 4546 0.82285
19588 1434 0.691734
15938 17264 0.709434
1991 10960 0.436826
15165 8997 0.0142716
1414 5659 0.942437
10475 17835 0.150473
7476 8553 0.277368
405 1190 0.386869
13879 2453 0.895908
3113 6715 0.762007
7335 2513 0.613618
2293 12306 0.0205341
8977 3322 0.94202
1488 3109 0.793303
16618 497 0.240068
12031 6466 0.557628
13215 10385 0.579068
16440 12066 0.364242
3464 219 0.0449221
3817 5517 0.820954
7252 17523 0.20978
492 14401 0.817925
9398 13034 0.893171
6783 8885 0.94398
15895 18691 0.913038
9463 527 0.46782
9332 18332 0.271215
15730 1386 0.370491
498 5234 0.424543
12857 16452 0.66402
14058 7873 0.693245
7680 11294 0.122593
6425 15083 0.662633
12391 5667 0.78515
5628 604 0.647979
4113 17856 0.495721
3036 18893 0.306285
9037 2969 0.639927
984 2490 0.0441759
1798 12593 0.245271
1968 9087 0.817549
19200 915 0.711989
10816 14385 0.298543
1949 1812 0.112147
3361 6096 0.456679
16926 1858 0.237072
3053 3004 0.229221
5423 15632 0.229681
7005 10496 0.170901
1380 7880 0.454229
6570 3214 0.00819768
3583 1646 0.0542039
14188 8388 0.635322
6243 274 0.705654
9303 18210 0.672268
2276 7736 0.386882
2593 208 0.0811793
8414 19188 0.537958
9115 3963 0.210942
1462 8191 0.771357
7313 2042 0.957732
5015 12102 0.863608
12224 10696 0.365523
4859 4473 0.0401331
10520 9640 0.349828
17647 15071 0.00797413
9117 7303 0.842748
1279 2204 0.0693647
10720 18293 0.402649
3942 2068 0.572628
6533 5031 0.0189368
5546 2774 0.305116
2247 16430 0.365391
5028 1112 0.0190009
18252 12175 0.492392
17144 14982 0.0622736
14642 9934 0.363259
19053 268 0.726587
17906 2197 0.0627065
756 12236 0.261257
7956 17919 0.239371
12256 5765 0.876333
12512 3044 0.032937
11039 7599 0.488888
16808 9273 0.110629
4989 3536 0.0180217
5229 5045 0.172459
5675 2202 0.928793
3951 4776 0.361158
8375 6795 0.942728
7113 5758 0.0493008
10392 7897 0.371256
7685 19087 0.346065
10662 5896 0.580816
10411 8031 0.990277
6490 17742 0.947175
10998 9598 0.228075
2001 1660 0.844644
5528 14370 0.715965
8470 10585 0.951282
2071 12697 0.254804
16729 11351 0.424233
12624 8331 0.580592
1265 8032 0.0833248
1978 16596 0.853278
9699 6971 0.848964
16332 6317 0.119124
6616 14152 0.728779
6731 3626 0.886424
3121 6644 0.505091
3386 17567 0.993219
14811 4956 0.960495
11093 1617 0.50017
5904 8226 0.301644
10425 4171 0.372407
17495 7424 0.259857
3464 11835 0.580505
19641 5445 0.611298
10498 2741 0.831888
5333 9120 0.979724
5733 14718 0.0561507
6128 7360 0.112292
10482 10315 0.90903
6487 16626 0.198624
17215 19649 0.209217
5298 15427 0.438542
18596 5213 0.175413
2477 19993 0.396631
303 17151 0.87929
11012 13526 0.0437073
13497 4090 0.597529
3438 8017 0.707733
5562 5724 0.576971
12218 900 0.372081
4381 10088 0.614471
4336 4520 0.516237
9508 14918 0.876628
2530 18498 0.0197333
18325 5231 0.60225
6880 9530 0.26621
8348 18488 0.295978
8760 9179 0.0480076
3129 10842 0.616774
4816 7046 0.340465
8518 668 0.44178
19967 4876 0.122703
812 9432 0.328784
16792 5527 0.306632
2912 2160 0.481631
9480 13431 0.611298
2908 9500 0.605629
19042 1163 0.822963
262 2898 0.656712
16930 137 0.360838
9787 4654 0.485059
12159 73 0.840004
17473 9101 0.474001
11270 18742 0.470696
3853 14677 0.269233
2696 10228 0.475383
6033 12515 0.835808
4526 15248 0.828488
8248 5860 0.297505
4826 11748 0.435486
5472 304 0.621465
1058 17163 0.207271
6910 6702 0.60902
19004 1975 0.202104
12268 4450 0.61855
3012 8181 0.110077
6728 8591 0.286464
10222 4725 0.594064
3735 2687 0.735617
19224 12485 0.0129113
5855 13884 0.151862
11083 2669 0.528388
3894 12561 0.037161
7164 7777 0.264574
7925 8887 0.157868
18121 9706 0.991092
16783 6637 0.649736
11872 6465 0.431538
8150 5555 0.616684
1561 6524 0.230323
13151 13903 0.544723
4698 3215 0.848386
7696 4440 0.917202
5024 9521 0.766929
19462 12663 0.289918
12629 7057 0.670999
4752 12975 0.289475
3387 19302 0.296488
5276 9659 0.6651
21 846 0.350769
2070 19445 0.510329
18298 11214 0.371112
5483 6001 0.258474
4922 10115 0.548133
2748 7317 0.374126
9818 3940 0.540428
2814 10840 0.897306
4813 9780 0.384436
240 13726 0.219053
10055 18881 0.322136
5387 5669 0.856363
7710 18728 0.0269214
16512 2215 0.708239
6208 4891 0.598768
11915 6309 0.398821
9895 7153 0.246115
1521 7799 0.161944
11640 19889 0.917249
2738 11839 0.499753
5364 13222 0.156773
977 6843 0.3515
8380 6348 0.548631
5368 12959 0.58853
9842 1527 0.679237
1766 8100 0.55122
15569 12653 0.267623
4052 8229 0.361823
6688 10186 0.131021
2709 3288 0.161221
11571 9574 0.984966
8554 19528 0.323703
9274 9164 0.188154
12810 13659 0.411342
3788 5003 0.156383
9935 15918 0.954641
9712 3284 0.360753
16808 6457 0.908716
12731 10390 0.776517
8196 9572 0.983855
7218 5725 0.776861
15572 4932 0.254759
8595 11416 0.0818952
17849 235 0.633202
4574 9362 0.769913
1499 1095 0.603555
13676 8843 0.513928
14968 9074 0.124528
3947 5468 0.0870847
2404 7425 0.871576
17052 12063 0.393768
13198 5950 0.789914
9064 9839 0.19775
9193 17250 0.30084
13029 9602 0.00839213
10224 4121 0.263129
13365 8389 0.96925
233 8734 0.45297
8718 4069 0.874454
13261 5582 0.756434
6016 3407 0.564454
192 915 0.938288
11297 15301 0.962118
2827 348 0.489327
8186 12825 0.334129
8388 18841 0.598865
6601 1812 0.533153
12530 10835 0.364002
12355 8085 0.922259
1750 571 0.894083
7516 5427 0.99948
5371 6236 0.0522036
15455 496 0.600434
9459 12061 0.727688
12626 4193 0.396506
5543 9696 0.627907
10680 7600 0.322113
14734 12555 0.669528
5403 8497 0.939599
548 9312 0.270818
10434 19700 0.1631
10527 15577 0.0688842
10226 5446 0.819483
9978 10762 0.742749
8604 13390 0.566293
4529 10799 0.898829
1242 6329 0.579775
4147 8110 0.117267
8428 7306 0.269505
14100 5023 0.72659
16036 11196 0.226007
1695 14248 0.798088
232 12617 0.688831
4567 5826 0.0578218
15430 1958 0.99939
11226 7971 0.192591
11406 13575 0.218096
9799 1228 0.400513
9690 7084 0.866304
16352 6981 0.178056
13210 19811 0.783767
3544 319 0.577008
745 4568 0.798796
4470 4946 0.689356
2656 5763 0.291535
5621 1376 0.659374
4636 9248 0.604351
3708 11128 0.943604
10722 2417 0.928669
12022 18713 0.986597
3433 17456 0.510079
3112 11537 0.914643
9548 10856 0.237176
10504 2601 0.207205
126 13866 0.999852
3801 198 0.547566
1063 14371 0.328878
7490 11281 0.605081
9421 7980 0.899432
3772 2067 0.763823
3493 17864 0.38438
4112 9463 0.12588
8687 17732 0.68578
2015 9433 0.596439
17499 17946 0.802086
1860 12307 0.248165
7239 4666 0.53805
11797 12706 0.627237
4752 9476 0.82197
8703 11500 0.0770671
217 19762 0.827373
6176 4664 0.270456
5664 10063 0.198851
402 15718 0.549944
11625 5924 0.17015
8555 3483 0.211398
6864 13168 0.94381
1597 3370 0.53326
204 7461 0.157045
3384 1501 0.500693
4600 16505 0.377775
176 12966 0.566752
12355 1760 0.431773
10813 6931 0.676738
6671 10883 0.787701
4058 6104 0.428925
11053 11054 0.0979841
14669 8108 0.208432
3648 4335 0.889422
13231 17022 0.0541049
1418 15420 0.745067
8396 10215 0.149268
6110 19478 0.875179
5935 10562 0.833242
17542 17836 0.213562
13330 3055 0.0241923
852 4917 0.962072
3534 4564 0.167419
3234 17698 0.00488882
9649 12678 0.389228
10239 7771 0.336041
10803 2026 0.295455
54 2456 0.419851
204 19864 0.649812
18177 11673 0.919673
9323 8425 0.99692
8968 7306 0.196699
19212 11767 0.420339
15777 4666 0.939296
12352 12655 0.570303
7574 5359 0.14893
17157 9197 0.789254
19163 484 0.598074
865 1593 0.881553
3467 12363 0.863182
8925 16411 0.108708
9734 3468 0.0627065
2685 886 0.952749
1382 8053 0.790554
14585 10974 0.264037
11234 456 0.534851
2739 12630 0.120489
10709 19457 0.510356
5635 8096 0.00255126
17832 7926 0.357065
12234 12539 0.0920414
8777 3282 0.557136
2853 3299 0.718437
11136 2324 0.280004
3859 11310 0.281232
10458 11717 0.109455
6010 18058 0.544667
2531 193 0.639486
4893 8975 0.350793
19338 4891 0.837528
18447 4009 0.994296
11502 19444 0.947131
12272 11053 0.314668
12678 15298 0.378501
14626 3397 0.26611
15276 9876 0.67814
11540 2820 0.689397
4259 13808 0.505965
9595 10692 0.815265
4092 8505 0.245262
13296 13839 0.464485
10534 10382 0.639261
6329 3934 0.465466
10789 11442 0.430565
2775 2961 0.206399
6495 12953 0.362343
6721 5464 0.951607
3102 10383 0.192647
11810 7128 0.571291
1924 1450 0.893388
8800 233 0.878478
14955 3910 0.858372
8455 12065 0.896713
10792 15285 0.393275
769 10956 0.926696
10984 12123 0.458161
6485 13523 0.0536616
10497 5127 0.899728
4669 1245 0.0709828
10430 13009 0.656098
13541 1941 0.430176
15233 6546 0.676861
9704 14228 0.205623
14768 13329 0.0344723
1149 18524 0.758152
5541 7088 0.0807069
11176 15499 0.553488
2747 10952 0.649907
11017 3921 0.515671
7934 14898 0.130788
1825 6872 0.674175
1758 2977 0.674854
3591 2366 0.0427184
2810 8156 0.352278
4166 7062 0.880252
5859 10819 0.0365384
4789 4710 0.166295
109 5816 0.306926
10453 13660 0.408198
16906 10288 0.145202
19438 3357 0.360731
4765 13192 0.683995
3356 1776 0.0795981
6853 11423 0.686127
5991 4649 0.132378
6566 6687 0.278464
5747 938 0.97344
11441 12711 0.0242275
4696 10440 0.165284
11105 4567 0.245411
5575 14166 0.112611
6573 13330 0.389566
6846 17994 0.795149
8635 10903 0.308393
1224 11861 0.475004
21 11181 0.0331123
1181 15988 0.950689
5201 15475 0.115704
7292 2659 0.364539
284 18487 0.527151
6801 11699 0.0897043
12772 776 0.806273
11204 7351 0.468512
2119 7504 0.0565918
8003 2281 0.521772
1607 8551 0.768377
3431 17762 0.938222
14299 3185 0.086701
4040 8281 0.638184
4051 10256 0.748251
11291 3998 0.865027
16165 2422 0.85731
15619 11074 0.0172286
6375 10843 0.00211757
13964 5503 0.195997
10228 2313 0.803459
13654 13860 0.840967
3481 12854 0.770138
500 8999 0.785593
19922 8462 0.996088
14206 19565 0.304003
2138 2800 0.154674
15718 637 0.891174
1790 11503 0.726436
7909 6122 0.698417
3130 13833 0.662764
4721 5311 0.868204
10176 18584 0.541012
1343 1326 0.191291
8573 1703 0.0615089
12809 12168 0.257871
7371 16278 0.911845
11660 558 0.321907
5427 13748 0.819782
797 10384 0.719956
2420 6944 0.834435
2932 7511 0.997972
358 3194 0.641198
4734 8020 0.598947
7967 14360 0.21201
3811 5789 0.270388
6132 6041 0.19733
12681 5056 0.58433
5810 719 0.0803945
18432 3353 0.022335
10258 10771 0.259471
15490 7530 0.0896274
16168 7057 0.656712
18999 15637 0.560781
15202 7602 0.464451
1993 5386 0.649758
19717 12280 0.647363
3842 2708 0.356182
2385 11983 0.394457
9527 19412 0.151449
13181 476 0.955256
16992 17111 0.699058
11904 19054 0.623498
6734 8905 0.148796
1471 16269 0.68931
3254 9787 0.237789
5456 18291 0.250576
802 8964 0.661346
3204 13785 0.376788
757 8150 0.29784
10424 17781 0.703601
4575 8826 0.275872
12100 6899 0.269505
19215 3097 0.8239
6285 6940 0.0227215
10011 3796 0.878377
2308 8960 0.240585
1783 4752 0.143716
10559 4881 0.280977
17777 4438 0.460483
5248 449 0.808348
17135 7407 0.158726
9849 2479 0.857285
4462 5707 0.484957
10503 4124 0.0465599
11924 7451 0.959493
1864 13132 0.190858
3862 3578 0.321523
996 1477 0.467715
11070 7405 0.456958
12220 5397 0.489463
11760 9546 0.358491
15906 10860 0.0881929
8507 11815 0.986163
749 3972 0.0253536
12571 3771 0.319459
12120 9239 0.704153
878 17427 0.627267
12410 10631 0.662736
8464 7371 0.492729
3194 17543 0.939727
1183 19127 0.363901
18142 10061 0.10525
18986 612 0.802103
6152 18454 0.309898
4252 3677 0.129118
11479 14764 0.843038
18187 9129 0.99635
10606 3373 0.0747772
11694 3651 0.296817
17322 19226 0.811323
2865 8463 0.768567
19807 8219 0.947316
3917 5113 0.536453
19116 15711 0.485533
15139 2543 0.419851
12963 18197 0.258845
13022 11336 0.501648
19538 5977 0.64408
15386 2598 0.590587
8926 5281 0.592803
2152 6856 0.123662
8413 13466 0.913662
9027 9810 0.930574
6036 7371 0.124191
19230 11658 0.788402
1123 7492 0.725379
18693 8014 0.85389
13460 6435 0.158417
9935 494 0.990854
11080 3399 0.0460448
3898 2276 0.185297
6506 3026 0.679402
12046 3673 0.764235
9529 17737 0.776974
14677 4617 0.470215
9026 16429 0.653829
13200 16801 0.25651
7490 17388 0.702133
15771 5782 0.00922637
739 12873 0.277331
1616 9371 0.23587
5549 14414 0.66694
9554 11322 0.0510078
153 1293 0.909022
13195 8881 0.108238
16849 6503 0.949699
11288 9664 0.581985
3200 12495 0.441104
16928 115 0.664764
8740 1832 0.284046
11967 12558 0.42436
13490 5017 0.0872434
10210 4036 0.2086
9304 8582 0.197504
3778 2719 0.571488
6020 5470 0.29374
2001 9997 0.610295
18743 8653 0.953557
10130 19721 0.744105
601 14933 0.700095
13830 485 0.352846
3191 18796 0.858372
16431 12534 0.898467
4751 4089 0.635914
1996 324 0.662809
12865 14508 0.00083538
9299 19243 0.858193
2608 1373 0.463458
12591 12411 0.883649
9801 2125 0.418854
8558 17263 0.179693
16445 18622 0.0166282
5752 4959 0.189725
2267 8157 0.230544
5216 14979 0.7839
10264 19080 0.959065
11862 2775 0.460692
17244 6924 0.96925
9592 8346 0.0148401
3409 10939 0.380468
19383 1235 0.663986
12318 9452 0.0477454
1487 5032 0.184988
1218 19256 0.552727
19029 4808 0.67413
1875 9301 0.310357
1973 9234 0.635915
13856 2661 0.144252
1210 10021 0.125863
7730 4548 0.949443
1744 8650 0.414113
4442 16932 0.151114
19086 7688 0.972265
7884 10348 0.436531
19683 10178 0.48823
17061 17961 0.405322
18185 8569 0.07234
2206 16792 0.993952
18405 9160 0.690303
8180 6527 0.182082
8358 10646 0.549144
3586 15445 0.473267
10685 12863 0.607893
2793 5093 0.991556
7011 4176 0.434024
11536 249 0.397215
5583 3971 0.644075
2114 17853 0.403717
4052 12421 0.518503
6201 2278 0.172635
10795 5925 0.569992
7898 7748 0.136213
9989 2796 0.384939
14705 7585 0.815391
8242 17872 0.219322
6447 12215 0.251356
8285 13843 0.668096
4038 952 0.673995
1616 174 0.344638
9793 4597 0.546354
7689 16394 0.374637
15777 11169 0.518348
5580 8859 0.169846
7293 17773 0.559056
2009 6259 0.93812
18266 17829 0.637605
1120 16738 0.0828652
11023 5425 0.134361
10060 4178 0.879088
9651 1675 0.741711
9334 9755 0.769913
18715 1571 0.915679
10827 513 0.884805
1028 8774 0.735923
13652 11114 0.82729
4574 2932 0.237867
8581 8270 0.891873
19657 8600 0.565692
10508 6914 0.908034
9933 17258 0.911737
12707 14615 0.614421
7619 7731 0.156895
1148 7687 0.833718
5343 17184 0.424938
9153 9905 0.740894
19526 3687 0.325195
7646 9240 0.176795
14238 194 0.594337
12311 145 0.217015
15535 7034 0.252255
8027 4167 0.0573029
3819 4750 0.542833
755 10792 0.513814
6045 19183 0.588796
3899 3341 0.846067
7656 8819 0.371971
11407 4775 0.669924
14014 7299 0.232747
2445 7438 0.509928
8987 4429 0.988012
5659 7434 0.919811
534 10239 0.994105
19165 1901 0.511594
11773 17623 0.290699
4846 46 0.610514
12017 18687 0.0231999
9033 11143 0.822158
15119 4180 0.81667
11463 15878 0.0506538
355 8239 0.290327
1759 1855 0.0324078
16077 8947 0.0874018
137 5847 0.0143347
6252 8108 0.978822
1265 482 0.153489
2449 6589 0.784198
3371 3957 0.496878
5396 12101 0.317249
7641 11885 0.25606
2075 13921 0.580816
1190 10972 0.833935
2766 1258 0.346619
12356 519 0.258241
13218 3541 0.505566
7749 4079 0.881073
3686 10217 0.982131
6103 4988 0.85458
16195 16408 0.129261
11183 10261 0.0525402
7058 794 0.872782
3407 11909 0.863272
11395 739 0.907832
14049 770 0.00687991
8113 19918 0.113686
7969 8772 0.594843
4560 11363 0.879181
19085 7492 0.145852
178 2526 0.455927
7410 10368 0.178968
4384 14509 0.560318
10918 7138 0.102417
11188 15808 0.462552
2099 19387 0.894808
626 10613 0.559672
17060 10941 0.262407
18890 6549 0.820844
2009 15616 0.273643
10977 12652 0.579079
1272 12817 0.524109
3353 5976 0.346832
5806 11589 0.581833
16067 7094 0.393574
418 12459 0.667698
15349 4268 0.977588
2926 9870 0.984597
2641 9719 0.0293787
1487 8837 0.639219
17426 4517 0.868424
3738 9223 0.756323
17555 7791 0.0935737
10076 10593 0.901774
17258 3528 0.278578
3219 3868 0.609328
4841 9686 0.526461
9688 1527 0.014664
11333 8551 0.206122
8319 1853 0.0973636
6572 12231 0.908078
18235 1396 0.534528
1179 10778 0.0162552
3168 916 0.822485
10507 1058 0.273741
17425 1053 0.511452
14194 10498 0.780009
17970 4938 0.737815
7058 16450 0.315745
3308 15121 0.672734
6596 5095 0.38919
37 1868 0.213708
10819 10811 0.862234
9689 1515 0.571829
8994 8564 0.792575
11877 18 0.980586
10403 4087 0.802103
652 5004 0.987536
8498 8121 0.29136
14666 4226 0.46289
18036 10770 0.0640354
13902 12052 0.512375
14588 16483 0.804584
11995 14839 0.22544
8667 17023 0.0837316
5971 13148 0.350994
2755 2719 0.0969189
4671 8800 0.854023
17284 5454 0.644075
17541 5160 0.442418
4694 11313 0.391775
19481 3795 0.892774
15190 5603 0.0381273
8080 15332 0.302901
6349 14914 0.135222
16648 5878 0.137606
7313 6615 0.386327
8758 10409 0.320307
7307 939 0.00714794
4094 2221 0.531626
1752 11486 0.907176
2832 17666 0.224354
6893 19033 0.968277
8445 11476 0.32466
1669 12594 0.957483
19687 556 0.0265965
9319 5912 0.437681
16312 4805 0.127954
119 9286 0.122477
1766 5479 0.216004
18454 868 0.879575
11290 1276 0.774909
15708 4801 0.773415
18024 1759 0.271777
14781 13087 0.649496
10433 12300 0.329636
10361 5296 0.540698
4863 9343 0.865782
10021 8391 0.441627
19460 5920 0.170786
638 18662 0.782709
3131 876 0.747462
10048 10068 0.263326
6060 9943 0.556055
967 6227 0.502394
8906 656 0.79237
15808 4380 0.476644
325 4209 0.501356
551 15900 0.872642
11977 1256 0.83503
10219 13200 0.798698
18673 19201 0.70871
6721 2815 0.440566
9821 8321 0.391632
8364 1670 0.274316
14398 11868 0.931299
12732 5270 0.637014
7324 13620 0.0162473
11890 4373 0.532065
10902 3549 0.0921158
16912 11786 0.726302
11797 7380 0.169517
16377 757 0.295455
15673 12247 0.231134
16107 564 0.667103
6714 6353 0.600723
13287 3915 0.697825
9584 6946 0.369598
200 18133 0.527887
19252 11371 0.291185
11181 296 0.319326
10671 5624 0.401217
13358 18353 0.739356
11107 2872 0.371112
682 1916 0.340292
2303 11044 0.314778
4641 13797 0.686368
12244 7859 0.407745
3879 3920 0.68112
2402 5936 0.99892
18714 15202 0.558713
15057 19702 0.615541
3273 1094 0.360728
15177 14196 0.323634
6091 10236 0.77512
5034 10928 0.825652
7562 6128 0.00985337
4115 15095 0.749916
17858 2561 0.922932
18080 19226 0.933743
13039 493 0.242433
12074 6833 0.29039
2011 3098 0.326748
10716 13124 0.768504
16679 7018 0.515801
2610 7579 0.549321
14896 16419 0.642801
17244 14695 0.431115
10090 3018 0.551754
4525 10357 0.993472
5885 15291 0.748601
4526 2530 0.424055
613 246 0.588083
7396 16319 0.935254
3714 12409 0.495015
9249 4891 0.864718
19845 8413 0.676342
8234 16874 0.655767
11156 10875 0.43724
5339 6852 0.190607
1155 6359 0.765285
19069 7374 0.943689
13518 10380 0.143074
3725 1053 0.856008
13033 14883 0.0952154
1505 2489 0.68023
12785 214 0.633327
12402 6694 0.198142
19625 12658 0.161952
4141 3305 0.412985
1872 10768 0.425859
3751 3759 0.474707
11712 12732 0.623853
16042 6725 0.724932
3474 1453 0.215011
18549 9024 0.391227
4041 8535 0.106686
7742 8707 0.724044
2403 17880 0.448201
1984 10 0.0456392
17470 16016 0.929789
9987 18082 0.406899
13494 12113 0.560781
5653 13666 0.113306
19932 4266 0.545715
3319 5799 0.643815
4860 9472 0.782331
7538 1459 0.585195
12369 391 0.487913
12228 12470 0.786738
11318 7624 0.0915122
12667 6235 0.328039
8847 2365 0.950094
6062 14199 0.0800187
4740 10601 0.952353
15226 3226 0.428767
4059 10298 0.670105
3299 1565 0.34027
2328 8756 0.234052
8944 12294 0.159676
976 12369 0.928434
16450 13455 0.660077
13492 3743 0.704594
10841 19684 0.462605
8914 9020 0.349918
222 1785 0.149216
14892 14801 0.827185
18586 1667 0.870247
622 6030 0.27363
11842 373 0.163089
12462 545 0.959021
6395 12045 0.0283433
3763 11671 0.671359
10195 8130 0.796739
10786 16251 0.776511
2502 15094 0.0561507
18504 1619 0.856658
2804 14653 0.863195
18745 14896 0.571829
10201 8553 0.32841
1370 8732 0.372927
239 8312 0.14098
9262 13948 0.22464
8060 6047 0.898294
9706 8171 0.237072
1051 12451 0.396215
8756 81 0.788732
9866 7943 0.712512
7964 11088 0.361527
16455 4907 0.72746
6137 19253 0.225416
5552 8120 0.184193
1269 3804 0.641236
15860 16869 0.0412208
6440 5205 0.912323
8885 9473 0.111959
19698 1005 0.643789
16367 3843 0.982351
12566 12739 0.579276
9887 2444 0.257579
19013 4030 0.652377
9086 12937 0.126105
15908 14683 0.916235
6644 8952 0.829475
2359 8947 0.105584
10146 3222 0.110229
15287 11865 0.406899
18161 12498 0.807318
7409 9535 0.660755
1363 6046 0.403535
8217 6236 0.331107
13795 3337 0.93106
1986 427 0.879318
12662 6052 0.280442
13356 16426 0.99627
8006 11965 0.176672
5301 1456 0.519803
4267 5068 0.728343
16455 5195 0.644392
1009 353 0.365323
10363 2957 0.613488
16121 15187 0.694353
16100 199 0.522727
12351 2120 0.965508
4825 6255 0.23178
11680 11496 0.435922
9614 2821 0.694613
431 6478 0.988725
7598 2502 0.0429112
14825 11987 0.923239
9719 11060 0.847768
5657 17719 0.679085
8058 7170 0.716673
3494 11569 0.742348
4040 10097 0.201131
2094 3939 0.667698
16541 5884 0.827691
5317 7992 0.334969
6442 3771 0.490679
9830 9588 0.259313
10569 2114 0.418483
4975 2475 0.889828
4690 16480 0.223417
473 4311 0.371542
12844 9829 0.963796
10890 12807 0.564785
5716 4948 0.0576866
5391 12479 0.851041
17490 4158 0.423399
9046 7968 0.550923
4191 16033 0.00133287
7838 11602 0.448432
2900 16660 0.661305
6869 3077 0.367346
12106 18673 0.709532
2372 10570 0.939544
1526 1187 0.712189
12321 4047 0.0841653
7909 11436 0.532935
7236 4104 0.4096
10508 7714 0.47575
11592 17252 0.0166282
9617 4423 0.527433
6971 3579 0.224779
2000 19933 0.207725
8987 6801 0.806876
16633 6109 0.770952
17368 647 0.956287
11371 7232 0.534334
15344 969 0.939421
1874 196 0.810415
18957 12760 0.222204
2218 8187 0.0704999
6167 8499 0.836308
5518 2600 0.894061
9880 19892 0.0892906
2979 2968 0.560863
924 10380 0.293607
3125 7974 0.106132
10841 7913 0.986111
1691 15807 0.845226
13324 9206 0.00541346
4903 8777 0.770198
10855 9045 0.549441
989 15025 0.575412
14616 17515 0.884207
528 10918 0.73261
7741 6408 0.246875
3642 8105 0.0527405
10944 9359 0.284399
1376 6592 0.96617
4302 3767 0.475521
2442 11577 0.218641
2473 5773 0.325879
8922 3226 0.00939197
14268 2141 0.749914
10826 2100 0.333462
419 2374 0.758278
3367 8187 0.862466
4497 13998 0.166941
13833 6487 0.628592
14878 11581 0.155763
12903 78 0.497088
4237 4642 0.57538
3714 10595 0.601381
17231 4668 0.610077
18784 19806 0.0659781
18120 5179 0.682933
11163 1902 0.119318
2625 10134 0.954431
6661 12665 0.25001
1750 2978 0.400695
7625 9083 0.684064
1771 4366 0.219134
401 18871 0.679456
3699 8000 0.324556
13528 2232 0.287877
707 4138 0.99967
14093 749 0.313127
7066 13160 0.79237
996 12722 0.0849333
13041 6462 0.335799
12029 4116 0.652695
13048 19588 0.534073
2149 11425 0.400646
12371 16670 0.537826
8122 2280 0.534612
4227 10607 0.208287
17689 1891 0.188784
10573 6328 0.898659
17576 3272 0.57538
16353 15421 0.25412
3146 7609 0.943678
1625 19273 0.805127
7759 17002 0.0624471
16 14546 0.652377
589 12443 0.484739
10910 19806 0.285363
437 15577 0.821334
4444 16044 0.395176
10092 1423 0.996621
11320 9403 0.521249
8018 17070 0.925028
18066 7961 0.372756
3219 5628 0.265084
4752 15615 0.94333
9498 6629 0.146719
11144 3979 0.25944
7602 3330 0.925309
394 12368 0.824057
847 8421 0.736557
3838 15213 0.78558
5696 15301 0.0826626
10685 3582 0.464784
6092 17518 0.672367
1231 19706 0.812906
4674 6236 0.485627
8281 8045 0.174994
7529 665 0.801889
7270 4403 0.479395
3147 1816 0.739608
294 6494 0.25117
12080 10502 0.664309
17029 3424 0.291669
14008 10188 0.373283
9963 8010 0.681666
8796 18473 0.745865
4651 2924 0.585233
2378 12042 0.544046
11606 18877 0.376775
1007 18250 0.875087
14938 12657 0.475714
9535 4817 0.764235
4414 444 0.269487
17680 13473 0.0715713
13941 12081 0.0126789
12819 2802 0.521628
3089 4953 0.467203
10650 1583 0.961272
7823 2026 0.494466
11841 5625 0.00132282
9397 6385 0.889463
7143 16101 0.569778
5449 2850 0.0305221
2007 5705 0.214305
2600 1953 0.664046
377 10912 0.0305146
11550 3652 0.867706
8467 6698 0.657798
5165 5836 0.653157
12756 5862 0.287503
1538 4976 0.744665
14501 18788 0.760144
18816 1010 0.751525
9631 2909 0.511537
6244 14197 0.813869
4035 8832 0.291246
3356 7698 0.580873
13816 5002 0.949469
5897 11000 0.64308
7708 7069 0.465522
6497 673 0.721342
6954 19707 0.109207
839 13490 0.267536
10584 11117 0.336944
4818 9340 0.32893
19174 461 0.732395
6107 18112 0.155395
9680 5922 0.887208
7133 16526 0.266684
12023 2833 0.98258
12330 5277 0.459943
4678 16751 0.829988
1688 9758 0.735868
3496 9594 0.0530704
3950 8818 0.814133
5804 1639 0.82688
3534 3058 0.419249
3226 501 0.451794
3306 19269 0.94123
6373 19710 0.88043
1182 7646 0.476599
15891 4940 0.891922
12548 5823 0.00593007
17934 14074 0.229221
16232 8780 0.909276
2292 13652 0.493028
2906 16115 0.404536
4645 2006 0.980687
7979 2748 0.623498
3453 4774 0.871092
3312 4680 0.0457802
6345 7249 0.272587
324 10299 0.027281
12916 3423 0.584782
8868 1206 0.0440725
1453 11294 0.390081
6649 13589 0.888516
3842 12918 0.354315
4237 7477 0.185939
4642 1798 0.518848
2731 1066 0.291925
3561 4132 0.0895486
17740 1167 0.900889
9543 904 0.100126
1072 5339 0.0628303
7541 7543 0.725095
2087 19270 0.924422
5605 487 0.810493
4784 5647 0.980198
9778 5484 0.364274
334 9156 0.304343
743 7979 0.0276439
15291 8178 0.465635
1435 2717 0.0676597
11045 9778 0.979298
8450 12166 0.277376
11264 12915 0.914757
7910 9559 0.0477454
7421 12021 0.0856865
5796 6260 0.292014
4017 8827 0.689531
14219 3312 0.760811
18711 5398 0.864206
5954 7884 0.424566
6281 2415 0.00990899
19050 9026 0.971215
19867 2331 0.701566
10775 14696 0.549427
18179 1868 0.417183
1688 1918 0.25862
3717 8747 0.0792386
636 14368 0.648416
12647 2976 0.995492
1242 10449 0.539277
13838 15157 0.409388
5882 11220 0.603157
12752 2390 0.581985
11056 7945 0.282248
9615 16933 0.968133
8997 1213 0.575046
14473 6288 0.633072
11093 4488 0.0162552
8319 8864 0.226734
14854 9264 0.69115
2611 19002 0.2085
4951 7861 0.256145
2487 10369 0.373998
9504 3483 0.885327
2920 19588 0.369464
9199 14765 0.960495
8389 12334 0.989897
4481 17923 0.693129
5741 2188 0.792146
8777 6888 0.605552
12348 5109 0.508567
16451 8045 0.399795
15236 4426 0.291185
2902 6425 0.0624461
1010 6776 0.945672
18088 17947 0.296665
6509 16429 0.460859
1141 14706 0.447334
5945 5680 0.82688
2819 940 0.0971714
10565 4902 0.458224
12897 3828 0.0925377
17630 1247 0.449131
9913 7405 0.17764
12804 9391 0.22978
8581 8127 0.677486
19543 9540 0.0994919
12459 4441 0.67441
5584 13662 0.203941
7478 14304 0.955526
15662 87 0.690451
12101 1600 0.903909
19198 7958 0.417904
9690 13917 0.408252
10597 10382 0.473261
4453 6148 0.960446
9033 4059 0.268398
12226 12511 0.551638
938 5707 0.244889
10484 8111 0.0550897
11319 17277 0.201472
102 1887 0.370915
7580 1965 0.432785
11096 19592 0.477365
1185 7975 0.710911
19174 1283 0.203116
3679 4792 0.152159
11527 781 0.435796
17824 6168 0.751234
5251 15833 0.887227
6476 16981 0.0935544
14541 3054 0.581985
12987 4776 0.189559
4130 19485 0.481331
5488 11451 0.847095
8940 8441 0.689356
14785 6418 0.043776
9389 9432 0.392841
7976 4967 0.817036
2837 1555 0.648641
18346 12471 0.989634
6388 13043 0.66514
725 7786 0.974446
8886 5258 0.577833
9114 18372 0.999424
8182 2353 0.544723
6464 5671 0.829776
4604 15911 0.891787
1848 6877 0.909878
14177 831 0.971791
17602 7392 0.627278
12074 6632 0.516256
17579 1311 0.787213
3486 983 0.363328
2427 7548 0.100642
1045 11081 0.0119375
6217 3207 0.516944
12104 19953 0.968899
11030 2579 0.367591
4875 4371 0.0992357
9884 13359 0.698871
4140 7519 0.060891
16340 6755 0.369598
9858 19553 0.934865
2034 9604 0.0410427
6400 11120 0.981775
19956 13511 0.584286
9614 342 0.366769
6026 9812 0.912842
5986 14122 0.597155
3506 6639 0.891589
5619 5101 0.319581
15804 6446 0.931538
10914 12034 0.413027
2795 10200 0.173971
5127 11663 0.75823
2722 10989 0.927169
13928 1522 0.60335
7760 15480 0.870933
1575 1110 0.516806
11952 9499 0.352153
7055 14193 0.691675
19765 18253 0.774863
7686 19213 0.0693647
8032 9493 0.590864
11137 10743 0.828033
3675 2244 0.128161
10163 17473 0.504854
3504 4655 0.173154
15919 2571 0.408252
6311 9766 0.923597
5693 11512 0.642685
4179 15259 0.19046
17449 19653 0.236878
11801 7252 0.14058
18296 2315 0.75985
5701 635 0.309806
15637 12421 0.748016
18781 5084 0.561484
1137 6824 0.267962
5039 15784 0.884971
3798 13893 0.407085
2497 7106 0.0849951
80 4645 0.0287266
1489 2075 0.396622
12907 2525 0.00947925
2849 9494 0.278743
9859 19738 0.833983
4893 1922 0.0278282
5705 8217 0.475128
16013 6016 0.21358
8459 5530 0.782632
10076 9624 0.517512
14705 11904 0.00797413
4330 6746 0.889992
7895 12508 0.795468
5977 6048 0.496431
7918 13710 0.958144
2679 10840 0.683751
7158 2937 0.264627
17455 11281 0.15139
7269 16710 0.94145
14457 4593 0.54277
1519 8475 0.0635114
12259 10637 0.261527
9468 17467 0.250383
3132 15580 0.334367
9616 14847 0.0304006
2312 1668 0.0704999
19872 17921 0.408252
3909 4092 0.874756
662 18984 0.904051
5328 1911 0.570038
14110 4709 0.586523
16747 3549 0.882429
17113 212 0.860158
3950 8702 0.699856
3660 16922 0.698492
13380 9258 0.00444463
4223 11845 0.271015
8324 17894 0.102637
3373 8473 0.38778
8515 873 0.969868
8127 19545 0.370788
18638 6810 0.589095
2219 4116 0.236269
9262 18490 0.0464362
1256 6527 0.409209
17413 799 0.978699
19015 3389 0.0669635
9256 1709 0.302844
5480 2305 0.389546
6486 16845 0.514141
4237 16784 0.203321
1234 11851 0.0593967
16273 5098 0.183242
4507 12295 0.413102
17759 3009 0.591343
9713 10419 0.554624
8625 9338 0.65476
7919 11565 0.384739
8958 19635 0.59986
4869 5532 0.998437
15111 11426 0.409153
9179 4251 0.904628
18042 2147 0.148951
8782 8511 0.682474
6088 15617 0.825572
8207 508 0.507378
16513 3513 0.88982
4415 12885 0.505258
11582 7780 0.139976
12384 1260 0.483391
12020 13370 0.643524
17601 17596 0.310582
530 8785 0.192538
6705 4096 0.277721
19422 6524 0.208341
5307 11013 0.00392985
2537 16982 0.121279
11149 51 0.263165
5001 5787 0.541125
9026 4 0.833321
14229 10072 0.391157
6139 9630 0.0621168
14065 3917 0.663875
1431 6956 0.219767
2710 2156 0.848787
71 19323 0.038856
10830 4939 0.786759
135 15915 0.595775
4199 7715 0.795882
16237 6730 0.809975
538 216 0.831928
5692 15934 0.334915
15878 8846 0.260093
15374 10975 0.982131
2152 19561 0.252209
4214 17537 0.12505
3581 10253 0.76472
7975 4636 0.6651
4468 3842 0.680185
3303 7879 0.301741
12126 11766 0.197378
67 12700 0.729057
5179 15883 0.747299
16051 7879 0.671781
10037 8241 0.070167
3650 8263 0.798483
17285 123 0.507358
11968 862 0.317177
2704 3226 0.331199
7559 682 0.777474
7738 8065 0.351205
11662 13213 0.887904
9529 7590 0.683634
12709 4307 0.488765
5075 9028 0.968324
19524 10141 0.366077
17437 13738 0.595775
14669 10893 0.0519786
2966 8208 0.622411
9019 7489 0.564652
10860 10750 0.00252125
1579 5933 0.462184
544 1424 0.259471
17155 5396 0.960814
11257 2760 0.159274
13802 3421 0.603287
336 1646 0.316551
18286 7531 0.628725
5021 7781 0.00142548
9634 17155 0.635218
7604 16196 0.0973636
7723 13069 0.9287
7547 8155 0.635493
3421 19113 0.714451
11847 15381 0.805321
6237 2599 0.357135
4429 16656 0.21573
6179 18504 0.200493
12605 16767 0.317232
2227 7419 0.519713
4506 2783 0.0671657
18294 8145 0.878851
18883 12504 0.32954
10682 1350 0.690601
10459 8063 0.229924
12257 19434 0.0915806
11021 6443 0.587335
4575 1462 0.264037
8737 8865 0.712566
6995 9228 0.809524
1507 2528 0.347669
11538 5159 0.542799
5505 5301 0.0390136
5960 2567 0.604337
2538 5193 0.550054
5905 3091 0.759913
4254 12568 0.0510078
11423 12083 0.97944
2363 12396 0.112788
1766 996 0.468368
4636 641 0.699852
1397 1764 0.201323
2716 8817 0.902316
16322 18312 0.890818
7513 1692 0.40097
2514 16967 0.399473
10324 3593 0.897118
4739 10186 0.430565
16436 10027 0.437606
9717 11433 0.767992
2156 486 0.179252
9270 2180 0.314231
4115 2410 0.398707
89 18097 0.810639
8308 3551 0.961013
3732 11071 0.765399
6571 11546 0.569447
3707 6034 0.339081
2685 17439 0.365343
16567 18034 0.709243
4232 723 0.358228
225 16890 0.766987
8405 4865 0.868884
2152 3132 0.341595
6125 19862 0.238603
6171 10005 0.564785
16950 12415 0.820621
11932 11717 0.537087
3729 1542 0.855692
6256 1455 0.42883
4350 40 0.0131325
14179 8301 0.353594
3271 2097 0.889463
9338 19874 0.31448
15785 4234 0.432145
1201 870 0.464657
14066 17159 0.0660253
8371 4505 0.48561
774 11763 0.0226386
4275 2656 0.369704
14472 18078 0.418004
17939 7600 0.989137
9288 9835 0.229679
19395 1085 0.148742
18226 4387 0.641291
8919 5230 0.257657
6760 11506 0.274213
9549 18183 0.853418
7328 18945 0.100942
5880 1651 0.059836
18383 776 0.299698
4224 8440 0.390942
2631 7388 0.815204
16182 3031 0.840004
13634 618 0.391403
3651 52 0.696918
1801 2966 0.93293
16100 2870 0.450175
2670 12188 0.753175
5710 2596 0.773997
16232 3611 0.737635
1041 7132 0.458874
9321 11258 0.752717
12479 10117 0.976348
9152 2774 0.441722
10821 14888 0.991092
2610 2929 0.0629777
17477 11491 0.0418267
3334 5396 0.242551
19267 830 0.403117
14235 9127 0.406796
13350 14841 0.303804
9039 3020 0.997918
10650 6733 0.0424523
17274 9065 0.301429
2772 6831 0.649869
4844 18414 0.434322
949 2881 0.858476
1460 5132 0.929708
8718 10518 0.302736
17817 1913 0.14658
3137 465 0.544705
12615 18310 0.463521
9132 2695 0.192328
8333 8599 0.122805
13317 10711 0.669216
3458 416 0.592468
5248 16609 0.136742
4397 1191 0.831622
486 16274 0.587512
7286 9548 0.182988
10531 1699 0.538831
11068 9298 0.485425
13339 2764 0.833936
356 17079 0.886494
5232 19105 0.0447939
1884 6127 0.693895
13449 10231 0.432103
10721 11996 0.22352
6518 12186 0.0925368
16422 6106 0.0381273
19215 17394 0.339281
1785 1987 0.209116
14884 1585 0.953625
8051 3121 0.075354
2333 18412 0.114147
369 14421 0.292844
4944 4196 0.024261
11323 4387 0.686368
1639 6752 0.963503
3549 9462 0.233676
10120 3967 0.925782
8474 15181 0.0337725
10391 5507 0.0800366
7037 9356 0.794275
8781 3784 0.343278
11260 10828 0.390907
18934 13326 0.94281
8085 5759 0.16534
2824 9346 0.149497
14058 1039 0.726902
8123 3260 0.446222
2280 19635 0.0843442
8407 8368 0.0238278
12152 12410 0.638407
17040 249 0.117838
15135 445 0.779276
2282 19566 0.570038
10798 6579 0.0542527
8158 13440 0.0134003
15504 11052 0.778039
4572 11246 0.345461
7142 8601 0.518848
15572 5405 0.83006
9725 10442 0.236115
7424 9400 0.325352
9559 12405 0.205526
6338 12004 0.381388
1847 2103 0.970475
4287 4447 0.528865
7421 2829 0.65642
10185 5076 0.167576
3204 104 0.623498
19432 19931 0.745613
19958 12930 0.476996
2458 393 0.678987
17281 12933 0.218639
15882 6626 0.689805
3008 12025 0.707451
4186 11700 0.82688
11584 10927 0.0940447
11154 4038 0.245262
8131 6430 0.0221761
10651 10505 0.77941
6060 10816 0.698085
17075 4882 0.283324
6877 16193 0.103679
12504 5880 0.093139
3868 3107 0.40558
7592 5219 0.783286
994 12193 0.227124
10349 9153 0.404109
19986 7399 0.207503
12921 15268 0.493359
10071 17735 0.839715
8728 4560 0.318014
5702 719 0.832003
8 832 0.361391
8043 1151 0.583839
13881 1472 0.92593
10827 19128 0.379149
12453 16720 0.286899
421 2359 0.402747
6485 4674 0.661426
11812 13447 0.566747
4182 3874 0.326937
3980 8861 0.546662
2376 10828 0.301088
2167 19059 0.166272
2207 5525 0.926092
7230 8377 0.0526778
18819 7488 0.760194
12894 9954 0.237717
7679 2480 0.35079
12412 10742 0.343029
13359 3083 0.0722366
1006 9279 0.0546835
8541 7678 0.555375
1539 4724 0.526884
418 4440 0.649632
17539 6655 0.562855
12388 1777 0.0898162
16521 6708 0.484933
15912 10331 0.0965153
2906 1879 0.721936
2246 9644 0.281655
9128 3612 0.28018
10720 14194 0.417492
12021 198 0.284092
15324 573 0.169832
1582 4269 0.867607
18188 19458 0.708069
265 3516 0.866107
16087 10220 0.639024
3600 10114 0.865041
11924 10180 0.163455
11824 6116 0.178968
7349 9351 0.99692
11952 1195 0.764111
4498 7517 0.905919
14419 338 0.551233
15352 6682 0.373893
12034 7100 0.734225
6194 2004 0.450965
10778 1545 0.943545
8593 6347 0.915181
10430 19084 0.795459
13497 19455 0.64698
14020 10240 0.324273
7219 8643 0.659155
2521 8498 0.696264
19183 11339 0.320177
432 11273 0.82612
10479 10332 0.61926
4972 6291 0.325193
2890 15183 0.154803
1886 9171 0.672621
474 2875 0.919705
5367 10747 0.633105
17217 595 0.995727
12530 8104 0.705727
681 13632 0.413283
9103 6209 0.961715
17466 6145 0.885591
17823 11891 0.45411
10376 3326 0.923538
777 13701 0.289209
7436 6707 0.192002
71 7409 0.370104
11401 7821 0.0118695
1189 6074 0.989024
10899 8095 0.625324
6165 14843 0.748041
1765 8752 0.579071
4191 16325 0.263362
10926 5232 0.370026
1548 2518 0.220993
13872 8595 0.827447
12527 11844 0.325193
741 8073 0.54877
810 17381 0.32948
2595 7298 0.658246
10933 4325 0.278405
14988 2083 0.66361
13627 11350 0.238614
1693 19416 0.505307
12589 3862 0.0420006
12373 8094 0.824969
6796 10474 0.26461
6760 8428 0.346748
11453 12671 0.309065
7922 7310 0.871629
3842 15112 0.58172
1488 14147 0.365396
9280 8789 0.876825
9148 3590 0.704404
13326 3841 0.725898
7496 9356 0.500856
9435 17907 0.322491
13352 17276 0.67687
6715 17155 0.306321
10202 3232 0.157858
209 19902 0.340953
3175 15658 0.950924
5984 4100 0.437135
9029 1280 0.654042
9810 3866 0.720594
4987 1451 0.846317
8466 12067 0.204449
12976 15693 0.10286
9885 6704 0.175413
14269 3559 0.163089
3388 3245 0.617982
18170 3809 0.486686
4458 10554 0.887904
18372 9635 0.307699
3389 4418 0.337116
2313 17287 0.498306
5798 368 0.815241
645 6420 0.242785
1653 1377 0.3515
1830 11352 0.805536
14963 4762 0.137069
4515 10630 0.339169
12397 12850 0.431902
2752 4365 0.678387
7842 18404 0.34656
10135 8204 0.752281
12254 11928 0.736032
4277 14795 0.892774
16828 1188 0.91775
15335 14346 0.271777
1561 7192 0.563719
6025 8682 0.832994
317 16436 0.487767
6082 19419 0.248661
7805 3587 0.909846
19645 8280 0.99967
1199 7149 0.602759
4464 18238 0.643957
17149 19363 0.895026
6534 10673 0.717005
12472 11540 0.978215
4004 2925 0.280528
15879 17203 0.462094
5000 18604 0.899189
9872 5079 0.765451
9272 5835 0.205623
9868 9351 0.648936
8072 11533 0.608193
4946 1857 0.463595
18159 2922 0.377794
9287 264 0.678051
4339 8455 0.391806
7226 15544 0.542753
3110 6972 0.963132
2691 435 0.965178
11223 12401 0.130371
14683 4756 0.813442
7840 13262 0.747522
12577 384 0.666068
2376 982 0.880395
6629 7062 0.361509
9926 3828 0.925425
10120 13865 0.0876351
19513 5559 0.276174
2897 2521 0.131159
745 6491 0.751571
13013 646 0.662548
13133 6016 0.585555
5131 2337 0.283146
2020 10550 0.404933
6408 3297 0.500078
6471 9477 0.168236
10885 10713 0.164794
3029 6517 0.382764
11896 4299 0.277901
8410 16123 0.589996
1368 5982 0.0930977
18494 15599 0.341602
2912 18798 0.823552
3014 10649 0.267623
3369 5460 0.630752
15208 12277 0.424555
1955 15778 0.703466
18422 1931 0.690066
5850 15028 0.662498
6549 7442 0.170426
7311 7906 0.883275
1522 4891 0.145668
11115 1368 0.463306
15595 206 0.473826
739 7077 0.908078
5102 12425 0.667896
9579 8495 0.768033
18065 8609 0.811826
9015 5410 0.0325188
8424 11537 0.411041
3483 18946 0.0857014
18065 17768 0.677588
4111 18365 0.124548
14192 7454 0.464978
7112 5134 0.468954
17871 9394 0.744208
12220 332 0.208042
3473 5488 0.428645
2317 2165 0.912744
15392 14629 0.130251
17775 3719 0.71263
11482 11061 0.202168
11949 2572 0.545509
8746 4286 0.378293
591 9756 0.579793
10352 18845 0.157045
17442 8696 0.920232
11297 17723 0.644316
2165 14289 0.281538
7012 5547 0.689694
9142 5240 0.21498
1380 11849 0.834191
4665 11707 0.117236
3148 7259 0.322724
15836 13518 0.659276
1581 5181 0.466606
15091 13136 0.314012
19532 10071 0.822789
6103 15910 0.678692
18570 832 0.53636
1345 591 0.507206
7835 3207 0.355959
2989 7956 0.481331
14717 11156 0.12635
5789 12103 0.0740873
16580 11934 0.800738
11438 7864 0.154203
7519 3179 0.747523
17836 9774 0.0588493
1924 1540 0.510144
1595 7359 0.680355
14503 3953 0.512188
3693 16096 0.240006
17 9475 0.858652
3299 10919 0.340792
1311 1272 0.947227
10903 5823 0.647242
8032 3917 0.408886
14906 214 0.458605
5556 10624 0.0557499
15416 5888 0.80863
1576 6696 0.334419
8132 3392 0.941533
11989 13846 0.0448103
5012 2881 0.537638
2958 11053 0.44479
37 7451 0.442619
9636 12791 0.852297
7404 19141 0.31447
15598 5416 0.369205
10502 15527 0.703217
3012 5359 0.80609
393 5428 0.726736
7481 11788 0.476716
10078 8362 0.379208
8267 13086 0.0714418
920 8053 0.364359
14659 18201 0.676867
12988 17987 0.0489258
5363 7761 0.733938
2306 10516 0.027281
4129 3395 0.576381
15998 15431 0.510102
1847 454 0.402074
2253 16398 0.520689
1123 2298 0.952066
17552 19016 0.0132801
12113 2016 0.285345
10917 7224 0.573323
9536 10276 0.892244
5681 61 0.206435
15032 5294 0.942625
5855 11586 0.897167
8938 4668 0.205876
17582 6992 0.969882
17027 5175 0.271673
6393 11745 0.95134
3219 3690 0.902444
19424 38 0.80716
6613 5173 0.309827
14633 5523 0.641666
12205 12093 0.842888
19763 15699 0.616395
9073 6899 0.999531
6906 13147 0.991455
10162 10143 0.00849928
4692 8317 0.704772
12515 5754 0.388104
13416 3798 0.763547
9609 8211 0.700373
3757 5730 0.0182942
9827 16630 0.153016
426 17691 0.10863
445 14277 0.648071
8918 16438 0.104373
6053 7466 0.0779267
18652 7654 0.622171
6482 6260 0.806958
6193 12358 0.209767
13272 12661 0.396128
5626 6358 0.468987
2178 7391 0.644464
11351 13387 0.476419
10946 15000 0.875574
3265 2017 0.833991
14415 1593 0.00059616
8482 7167 0.575945
6030 1412 0.746019
7910 7668 0.748479
4596 1456 0.702751
266 675 0.81537
18540 14958 0.929081
7631 10747 0.203328
491 12356 0.374126
1448 11930 0.977113
10685 18509 0.922109
694 5654 0.472831
8026 17398 0.424566
18607 4310 0.674958
1835 3971 0.939009
8628 3808 0.734846
6713 9888 0.434617
10775 2650 0.295856
6845 6739 0.634687
3734 4121 0.434363
16839 2192 0.121831
14313 4628 0.210867
4294 4762 0.767727
1990 2353 0.471126
10563 2107 0.174104
17542 1379 0.815748
19705 5584 0.621285
9096 10795 0.960412
950 1988 0.921804
144 653 0.30639
2517 2571 0.90655
1627 767 0.45615
18145 785 0.293074
6536 121 0.877004
11687 16169 0.553572
12121 10309 0.890878
1624 11766 0.894417
8319 608 0.00526157
3518 15218 0.228339
12188 5686 0.0599198
10650 15351 0.494916
19904 11183 0.814163
8056 8255 0.946987
4608 17267 0.449051
14668 7540 0.606532
8504 7192 0.728549
6703 1778 0.918884
9751 14592 0.97042
7779 1988 0.404219
8885 11282 0.864174
15358 2314 0.0429121
6788 8434 0.0304006
10199 7913 0.76938
440 7244 0.286326
9619 11359 0.326298
7877 798 0.457371
11703 18562 0.37547
3198 5613 0.82782
12287 16299 0.695407
6699 1454 0.925478
11498 109 0.875019
7960 7951 0.679605
5954 371 0.789103
12986 1101 0.553821
1952 6678 0.517675
11653 1822 0.326574
15913 10965 0.960241
11830 14009 0.900889
4167 9142 0.360838
11249 12029 0.321523
2342 9872 0.46303
9905 18908 0.0764277
7484 10492 0.423173
11968 10395 0.88875
4979 10946 0.810744
13495 3735 0.840491
2420 8560 0.617038
17336 11402 0.258651
7035 11639 0.449171
18914 12586 0.867607
6485 315 0.288669
15451 11823 0.26621
11592 15064 0.0659153
15803 16554 0.0990457
17124 10662 0.537028
9863 2483 0.986196
10294 1866 0.635588
10076 840 0.435422
854 974 0.870985
2843 17808 0.8422
7268 3616 0.797684
17235 8153 0.657866
12632 14510 0.340347
11673 2583 0.257047
10189 694 0.092566
10999 4492 0.168375
12654 7148 0.125863
5856 18339 0.116477
13370 2097 0.0707215
17234 17468 0.700298
15529 4819 0.649728
2888 10875 0.17564
12335 9729 0.0872656
1560 8269 0.389269
13325 19794 0.583836
2792 12731 0.141085
11491 6400 0.756818
18592 3080 0.0139462
3888 4390 0.408136
3483 5518 0.650845
19717 6404 0.867502
13469 10460 0.149799
10118 9062 0.424093
5309 5406 0.207932
8014 2214 0.668161
19204 12441 0.413433
3933 9249 0.346938
7447 9256 0.639453
4865 406 0.918902
18852 14550 0.092182
11505 7907 0.722348
19370 8320 0.369897
13029 230 0.180007
8636 17342 0.894123
1272 9088 0.355203
4707 690 0.0377594
5078 7767 0.864959
1731 2848 0.909626
3679 2810 0.97619
5847 8928 0.186989
14785 10247 0.162019
4775 2807 0.391054
16392 12008 0.80721
4824 13880 0.149418
331 9042 0.150556
5239 2755 0.558229
9772 5262 0.497619
1413 11229 0.477913
3004 6902 0.980505
6017 2551 0.786486
4976 7821 0.87758
8764 9715 0.170135
2740 3011 0.593984
15706 2005 0.966381
17933 3145 0.125297
4720 9581 0.186274
5021 2411 0.256604
11859 4004 0.339325
23 4408 0.524583
7879 4479 0.0869638
10042 12728 0.8782
14927 10431 0.406423
18009 8225 0.889225
11437 1642 0.382956
12082 11703 0.889301
4531 12653 0.654662
1111 5847 0.837528
8858 13856 0.843507
478 12690 0.335992
6673 6749 0.269767
7342 8934 0.826266
14108 8174 0.40098
11329 15615 0.602613
8342 11734 0.494916
4547 10579 0.446181
8034 3351 0.0478878
3743 918 0.672487
561 3480 0.170811
8568 4653 0.192706
17062 12262 0.0628725
7765 1222 0.349483
4263 18402 0.746462
15887 13175 0.642267
4302 8373 0.55942
5097 6423 0.534322
19610 1070 0.552456
12379 7034 0.239463
698 9888 0.0885555
4570 8715 0.92937
3071 7691 0.533532
11252 552 0.141935
10370 118 0.967223
17680 5941 0.287453
9573 12636 0.784768
9683 8012 0.979262
15791 16312 0.341545
4483 13190 0.180721
7966 19650 0.672006
379 18036 0.27019
10752 2625 0.134987
14844 16551 0.723285
2564 5344 0.506257
11836 934 0.242507
8243 489 0.317988
724 8441 0.354081
19384 6375 0.511326
10236 10802 0.169767
16430 11642 0.744032
12945 6453 0.07594
2019 5341 0.22711
17418 30 0.0876249
18175 8318 0.789139
1708 13569 0.323955
1993 314 0.449009
13959 14118 0.961198
12803 4736 0.810071
15007 10594 0.729731
6993 4934 0.607065
3954 603 0.346669
2282 12377 0.257765
2040 2372 0.0425552
12074 8802 0.901978
19964 19091 0.11188
6678 10039 0.500017
9711 10548 0.85083
6405 5070 0.36645
5616 9583 0.683968
9211 7788 0.0323083
16258 2667 0.484129
2693 323 0.790159
14538 8539 0.257731
4423 12630 0.538997
11763 4145 0.508578
8678 8212 0.133507
10585 16384 0.406731
1547 17233 0.93767
2746 17930 0.283953
432 9087 0.895583
7152 798 0.14353
10193 6821 0.99118
7936 11828 0.654367
1867 19619 0.976076
6963 11437 0.804604
7542 4187 0.508894
5022 6693 0.204345
5195 906 0.0434979
12650 13572 0.955256
12481 3071 0.676967
3567 18765 0.921804
1049 10932 0.589834
10887 290 0.451149
3286 19910 0.728303
8702 13750 0.451312
16439 18084 0.835201
9039 488 0.0499703
3986 10123 0.847252
5794 1702 0.85332
10179 6535 0.806568
7202 8328 0.670902
525 1327 0.848793
107 7593 0.96919
1123 11184 0.237175
18995 4188 0.569302
7905 3166 0.131434
5469 5018 0.776911
12594 15834 0.204503
8915 10303 0.999623
18761 1957 0.170397
9334 5186 0.0377428
11174 7725 0.679372
551 14564 0.0173799
6067 2956 0.77962
6662 7153 0.23877
375 17385 0.331406
12728 674 0.628592
3105 19386 0.139456
7396 18103 0.749228
11576 16085 0.094212
5906 4709 0.63392
4052 6669 0.653623
5952 1945 0.566747
17825 4226 0.129263
8587 2162 0.0816094
6500 5902 0.363724
7730 2702 0.609389
11998 4027 0.569608
6618 16709 0.275602
11531 18143 0.428888
756 3107 0.781353
4924 16666 0.886303
11358 3849 0.27121
15829 295 0.212194
3627 8152 0.151198
10329 12322 0.209817
11727 454 0.562075
2357 875 0.651615
16910 3335 0.25741
2639 10336 0.947
13630 4980 0.276924
15796 5729 0.0127399
932 12846 0.0507201
444 6749 0.48572
3872 1481 0.822046
10975 8340 0.127275
15474 4241 0.697656
9969 8191 0.0583364
6208 12548 0.748961
2575 16046 0.756805
10556 7628 0.187775
7802 4015 0.696202
18006 19274 0.591343
17155 10536 0.919673
7676 10346 0.683582
2516 7046 0.460705
21 17327 0.335743
11951 2557 0.275397
8790 12652 0.26806
1550 3953 0.0780515
4139 11862 0.385662
3189 18835 0.0357559
16953 9034 0.882306
12021 7432 0.976521
8867 4225 0.369749
12721 11331 0.315066
7581 1910 0.810519
1062 780 0.130911
8419 5301 0.828244
1346 10135 0.216488
13805 908 0.752407
939 19357 0.467648
18193 11902 0.620502
14537 6375 0.670105
19399 6405 0.818697
4315 10760 0.906944
3499 983 0.0132385
1646 10097 0.330206
7002 11759 0.366827
17166 12031 0.843684
3884 15265 0.140678
16037 17995 0.903347
12614 3962 0.166065
398 4444 0.499379
10999 9580 0.741263
7813 12305 0.679596
13453 2035 0.429432
6781 2300 0.88692
4950 5251 0.691207
1010 9956 0.0838097
8529 7105 0.676967
15266 5704 0.507095
8380 17627 0.0680365
10724 2058 0.348176
6285 2363 0.592405
3207 10369 0.889855
455 17084 0.630569
15147 1835 0.664822
8713 12694 0.0976752
6849 224 0.491611
3189 3711 0.29151
14593 19650 0.673874
2342 11163 0.77418
11193 6507 0.535661
8304 13720 0.616704
5169 6345 0.36296
10035 5503 0.17999
18890 573 0.718791
7565 8591 0.671359
5785 17034 0.365578
9495 8244 0.510329
5400 18878 0.132405
7286 11981 0.575805
2912 10953 0.0745217
3045 3728 0.090896
14874 11455 0.717036
3644 10712 0.253734
8743 15851 0.472954
7903 3732 0.169517
11844 1955 0.621532
2071 16368 0.879954
7337 2068 0.284929
18568 15017 0.380451
10235 18457 0.528435
5736 13439 0.370915
9511 14002 0.541648
10518 8689 0.654422
18520 8354 0.458269
7270 2268 0.119774
315 19688 0.566998
11963 11250 0.475286
11793 6117 0.947312
3296 2926 0.478322
5587 9097 0.96617
6632 5182 0.72561
6719 15249 0.499739
5142 6956 0.147508
2182 2784 0.792792
3511 8138 0.159445
11276 12919 0.354851
11285 9164 0.815241
8313 1090 0.665689
10875 5940 0.331435
4984 8369 0.491448
13634 9042 0.191291
3912 9562 0.0567663
2067 15754 0.0477454
3400 3432 0.00922637
14231 13485 0.064412
17757 5588 0.722725
2052 11030 0.695407
11326 4406 0.481592
758 400 0.914732
11649 8319 0.458748
9653 14902 0.445513
10619 19695 0.733582
18186 5770 0.350609
7293 12238 0.519713
1986 3579 0.57401
3531 9179 0.41941
1227 2044 0.629088
10194 16046 0.322113
8853 18422 0.67987
19180 1348 0.708239
10641 6255 0.613374
10176 7503 0.224686
5144 6087 0.439388
8775 18486 0.701774
7245 5802 0.743418
669 4356 0.329756
9500 17434 0.0796398
9457 3140 0.130901
19219 15328 0.780347
2738 6154 0.502744
7668 4742 0.796486
9307 7024 0.12434
12075 10114 0.116053
2974 4667 0.477547
925 18761 0.0175257
702 581 0.763354
2640 8146 0.0976225
11145 6933 0.575626
5277 4665 0.742437
10615 8888 0.180734
11970 15346 0.954088
11300 5176 0.370667
10678 6957 0.228799
10334 17796 0.351447
4014 5260 0.389611
9394 14018 0.49585
3376 874 0.798797
7098 15585 0.85206
9203 10 0.921419
13844 17841 0.932783
1492 7830 0.197917
2722 9396 0.7653
18743 8846 0.809514
11701 18764 0.864037
12514 626 0.144455
9776 1631 0.336619
9257 2746 0.371424
10655 5229 0.160172
8701 7580 0.834585
3071 8733 0.21752
8416 6812 0.0833248
2639 9806 0.686781
13494 629 0.108708
17174 16008 0.231083
17306 7488 0.841127
1263 5441 0.300235
9584 6732 0.260924
5638 412 0.728788
141 15938 0.702242
16722 3815 0.459158
2751 11429 0.405073
10772 11005 0.701097
522 7588 0.893242
5017 929 0.668872
12484 10386 0.75596
10617 8814 0.357379
18362 8172 0.114782
1731 10621 0.0180217
5205 703 0.320467
19188 2061 0.324421
14325 7923 0.0316184
19849 17231 0.353034
911 9338 0.177754
18122 2414 0.376409
2557 2631 0.429865
579 9212 0.114759
2221 6003 0.857847
3785 8751 0.572222
16372 18636 0.517259
3108 6895 0.822362
8138 3475 0.399764
8789 2339 0.554598
1027 8143 0.137806
11516 7468 0.312465
1512 19649 0.323265
9871 10234 0.470533
11294 2069 0.680576
1026 12385 0.0228382
11663 2630 0.31029
3235 7732 0.674654
12326 9975 0.490648
14360 17283 0.315476
15303 4414 0.141386
2483 1298 0.839064
2633 14123 0.563212
5740 88 0.178067
4276 9421 0.824238
8871 2698 0.430855
9921 7299 0.094885
12010 1866 0.441627
8277 9439 0.673033
14901 19630 0.317956
10976 17851 0.473198
6679 8651 0.677239
8575 12391 0.288685
3881 4149 0.27472
4402 18202 0.656174
9095 5712 0.222547
7299 4402 0.55957
3769 10481 0.801155
16862 7823 0.549641
4146 1703 0.907217
1798 4185 0.300412
11148 9673 0.256365
15171 15724 0.746712
2823 2884 0.876628
10797 9463 0.686527
5960 1343 0.653134
4118 5537 0.824584
7321 11290 0.254485
19320 16506 0.566969
8725 11233 0.94488
10284 9075 0.850771
2419 11946 0.265808
11489 9268 0.00256998
11401 19614 0.786604
5713 9956 0.188274
24 641 0.730081
1844 10512 0.993952
826 13877 0.826742
2812 1782 0.768686
11808 19879 0.137419
9205 6475 0.066951
11383 4578 0.32466
817 9627 0.485618
10715 8187 0.825971
17522 3273 0.354478
8208 6222 0.58666
5546 2345 0.481421
4339 8262 0.699554
9965 8492 0.643076
6226 18737 0.434617
13920 832 0.424612
7402 17942 0.123961
18319 4628 0.677499
911 17000 0.825998
12635 6495 0.314711
11414 10671 0.564943
774 9063 0.547277
1230 5484 0.549144
8041 16800 0.120672
9728 7923 0.301289
7459 10125 0.458122
9034 12012 0.535354
3336 2254 0.284196
7467 6835 0.478662
2412 4853 0.105992
7520 6164 0.594694
12284 14774 0.972176
15165 4139 0.0698499
2120 16275 0.384346
18641 8419 0.360797
10276 4650 0.497944
11355 13571 0.670424
15425 12742 0.675651
10161 1944 0.0431086
11761 13317 0.922932
16021 2433 0.708496
2139 1720 0.870985
10138 2475 0.570808
1575 7535 0.648978
1280 3410 0.104522
10433 10419 0.882316
11743 3891 0.157502
5029 10482 0.619469
5622 12914 0.223985
4865 2010 0.884127
6968 12759 0.473907
11776 5492 0.167995
11519 15432 0.638491
575 10707 0.295868
7293 11170 0.343578
15362 4411 0.542753
11718 12128 0.974764
16723 7066 0.28862
6464 18965 0.874163
4707 1410 0.00372321
8355 11231 0.299455
13141 7879 0.236271
5526 7670 0.568208
3586 866 0.893632
116 18679 0.528768
6105 8759 0.599766
96 17700 0.0151873
2460 2354 0.634996
785 9519 0.112353
17369 6286 0.538954
1740 19529 0.965995
947 7389 0.00906482
7688 4927 0.815783
1376 317 0.0414496
6091 10810 0.465775
9232 4499 0.97042
13481 4442 0.0439666
16032 4683 0.640014
9972 10147 0.639094
12464 7360 0.524997
4488 873 0.373186
17644 7794 0.220799
5746 12991 0.823844
12542 5865 0.741897
6098 15475 0.519075
13240 7429 0.797894
4999 1202 0.523569
2220 2198 0.739181
16239 10574 0.643147
8633 5473 0.281332
7822 1734 0.777406
14217 9509 0.914084
19500 19581 0.39356
2371 2821 0.696174
12623 12099 0.894861
15920 18750 0.545135
8484 17595 0.263311
16163 5936 0.752947
14255 13645 0.41984
4568 1684 0.465272
8702 19673 0.0107313
16332 406 0.980127
8496 6444 0.805127
6652 7898 0.703953
7744 2678 0.0338564
19272 18462 0.472827
8869 7530 0.218641
3403 13132 0.843199
18654 3208 0.0932649
14481 10470 0.142142
12059 12579 0.0467093
10927 3315 0.919103
17308 7329 0.194701
10858 16526 0.18107
6043 7719 0.101152
8864 14417 0.989402
353 12549 0.232532
19052 5656 0.610446
9966 8338 0.227673
7921 2938 0.507617
2139 7145 0.122505
12534 3119 0.128806
16553 3406 0.219107
7784 7101 0.458409
13814 2027 0.576052
3301 14886 0.574119
8609 5625 0.0658404
12191 5805 0.581844
14493 1785 0.637649
6659 6530 0.245095
1828 17831 0.374888
1599 2282 0.319586
339 5866 0.305677
8247 12651 0.433029
5196 2393 0.552173
8877 8991 0.942087
5574 6109 0.93746
9445 18167 0.806429
6140 19688 0.787755
7299 10880 0.183584
4736 16946 0.561991
4705 15296 0.247139
17428 1626 0.75072
220 8445 0.629534
695 19037 0.319784
5071 6040 0.428888
7372 6559 0.395386
1687 4735 0.187301
14055 6526 0.261325
5034 11720 0.698214
2366 244 0.177899
11616 3312 0.750006
4223 1847 0.483321
7987 75 0.744579
19627 1195 0.289599
11962 16443 0.823073
16369 9535 0.920768
3297 8261 0.420445
9712 18969 0.889662
7619 8616 0.469254
19080 14382 0.745506
18842 3413 0.389361
16968 8638 0.409247
11732 11941 0.981795
8132 11731 0.139412
10816 1867 0.457214
2416 3633 0.459258
15384 11508 0.414419
13820 9652 0.0342686
5857 16365 0.80779
2479 9089 0.0465438
3959 3179 0.908429
18029 2725 0.616307
16985 16163 0.788596
5140 8954 0.813709
5333 18297 0.328878
8661 14600 0.689286
347 12152 0.402663
5100 9728 0.87834
6216 14877 0.995651
11990 11426 0.877131
6235 10423 0.612218
12338 12556 0.802731
3322 2688 0.94479
10860 16828 0.76502
3726 9748 0.158005
1747 10093 0.693284
551 7305 0.110259
8361 4044 0.299295
16322 7565 0.274414
3693 9557 0.989634
5685 4894 0.831808
11878 15709 0.262819
6356 10655 0.218365
7251 1997 0.465513
14732 6191 0.566905
14009 17071 0.149204
8373 4466 0.863327
8709 10504 0.57636
1976 14623 0.921037
426 12636 0.312076
8606 1286 0.371788
5914 14602 0.633236
16688 14448 0.839125
1265 9745 0.967764
17 7996 0.668594
8493 8065 0.664754
2864 3767 0.308086
5151 5471 0.843687
15890 8473 0.460692
6933 6337 0.878951
8744 3129 0.635981
785 12120 0.827272
6805 11257 0.632303
7437 5853 0.66694
11907 10997 0.468668
5282 9230 0.265363
409 6231 0.00368122
4883 9578 0.567778
14612 16059 0.488839
1881 10909 0.862039
11649 2424 0.94439
3541 572 0.444128
16668 2686 0.4103
9172 15772 0.922076
19317 6305 0.868775
11947 7449 0.842956
4669 5843 0.182803
10275 11307 0.123562
18741 9557 0.578079
4214 990 0.189159
4231 4145 0.187517
4352 10866 0.535661
5122 12610 0.337684
9789 8172 0.306926
8884 2299 0.297285
15603 396 0.329423
4705 4318 0.879454
5695 6313 0.408886
10526 653 0.420217
8663 1012 0.538997
5734 7155 0.788554
11814 9136 0.537219
2319 1240 0.2305
8001 5826 0.720317
18779 2451 0.0332545
9952 9272 0.0585274
6902 7872 0.392174
11768 2595 0.990911
6436 7868 0.6786
13752 10167 0.0480806
1022 4945 0.745295
12143 1124 0.957639
16882 2460 0.619137
10416 5813 0.870294
8356 3744 0.365814
13298 15501 0.404483
17615 3583 0.0243931
8736 5740 0.50724
10000 10621 0.560207
2204 961 0.922462
108 15293 0.25117
1982 13740 0.988807
6020 6498 0.0957216
8515 12389 0.898666
18963 16792 0.264208
5674 6454 0.862466
4158 5850 0.161602
316 3750 0.955463
4994 6976 0.250128
9942 10748 0.921181
2232 3389 0.652448
3137 1289 0.323882
9142 7194 0.302962
7488 10439 0.925889
6818 3971 0.885072
11341 8678 0.133889
4692 11846 0.575674
2745 1981 0.0777908
9291 17231 0.602821
32 7927 0.608175
19083 11874 0.226182
7182 8823 0.272721
10225 14877 0.483283
4917 3974 0.907381
2847 6171 0.237867
3915 687 0.352734
12624 8457 0.918061
8741 3231 0.605963
17562 15719 0.36645
15465 9990 0.497352
11826 12174 0.509519
4922 4932 0.556393
18481 793 0.80304
16162 2301 0.935448
17733 13475 0.558616
13258 10631 0.786002
2423 3620 0.00133287
1917 18772 0.833023
5605 5596 0.802086
12146 11778 0.310955
2401 12872 0.179367
759 6262 0.900592
9821 11205 0.133032
263 7289 0.291951
11462 10806 0.286838
19156 5818 0.990355
1876 3399 0.885509
19491 7362 0.4154
5564 10277 0.896897
9159 17556 0.790365
14714 9832 0.70845
2159 4668 0.634016
3908 115 0.259279
8215 1951 0.196328
11565 11159 0.518795
3580 8673 0.295333
7260 4088 0.899432
9306 3641 0.944133
16531 674 0.14631
2611 8187 0.613611
10470 6302 0.511759
7982 5411 0.0888526
18753 1308 0.165729
6174 12277 0.538954
5472 1739 0.840389
3432 5028 0.143548
9665 15524 0.52031
18502 11580 0.468538
5472 11282 0.798823
9443 13062 0.0991495
7294 16031 0.0989261
8022 2572 0.380364
16680 8430 0.610545
17886 508 0.69328
2251 4065 0.366091
12722 19410 0.14119
13663 2283 0.668872
7962 4580 0.0621168
7544 12176 0.0218938
9013 802 0.948402
2024 4537 0.489047
8381 10565 0.928081
9082 6752 0.00116375
7951 8416 0.96919
12120 9196 0.441541
1966 11329 0.443735
5695 11545 0.326418
9911 12075 0.00646908
11057 3043 0.00613274
10880 17658 0.0319875
6579 17558 0.396387
6406 2968 0.839345
11081 15769 0.0817263
7661 2681 0.846103
6149 3934 0.491982
8311 10130 0.22711
10827 13219 0.605395
11788 11915 0.121566
10622 3763 0.596766
12394 7690 0.524937
10400 13801 0.410021
6323 7549 0.339799
5174 7159 0.374558
4635 6053 0.81209
12584 9825 0.792367
10207 8914 0.805321
5750 12412 0.812819
10846 6772 0.951924
4478 270 0.520273
6061 6705 0.325436
2815 3024 0.454641
11995 9900 0.453659
12370 11999 0.578394
2225 16975 0.871637
17380 4966 0.502624
10327 780 0.164374
4334 1229 0.0338934
13744 18643 0.621443
6087 7102 0.0241057
6308 14790 0.884375
1533 14092 0.156137
4908 8343 0.419801
11098 13030 0.309072
2749 11720 0.737583
1342 8385 0.111959
15297 8273 0.0849029
8406 17478 0.0119578
11388 7437 0.183715
16027 15840 0.711895
8785 11221 0.299698
446 6880 0.84572
6069 629 0.189544
3782 7274 0.384188
8522 9668 0.773385
4696 15358 0.253388
6629 10828 0.186738
10385 3267 0.346159
1647 57 0.396215
11702 6305 0.80716
3900 14692 0.922932
14641 17616 0.503538
18298 12573 0.452597
1735 6262 0.0910756
19195 11035 0.91288
416 19067 0.644472
6712 6351 0.6266
12616 5419 0.930255
5207 11883 0.489609
11236 8065 0.671432
12877 16309 0.998103
6671 15324 0.914356
3482 11177 0.233729
171 1890 0.27769
13857 18353 0.568729
5946 9315 0.329709
3937 3293 0.915492
11085 14428 0.197
3939 10001 0.938738
18723 11449 0.544064
9489 1106 0.604371
12734 17077 0.828187
6741 7415 0.0453008
19385 2883 0.0723803
333 1111 0.533337
6555 6315 0.451534
6145 2269 0.352846
19119 2719 0.89658
3372 971 0.749295
12665 3393 0.831759
2269 4233 0.0608093
15487 16574 0.0489097
11399 9370 0.64279
837 10717 0.846067
572 11801 0.111739
685 17159 0.0932627
4470 6162 0.861223
7304 8399 0.525556
2964 13901 0.981734
1844 12052 0.967582
9491 5686 0.0547092
8234 8224 0.0849365
1628 287 0.376407
1497 1566 0.139672
10582 10882 0.330634
6089 16002 0.490176
9387 13376 0.474574
2283 11482 0.525349
8056 4580 0.0210118
11110 17566 0.809001
3680 433 0.888431
10922 12273 0.790692
2247 7390 0.354218
6007 1490 0.299666
7292 8549 0.737327
5361 1324 0.178881
3534 11686 0.754935
5805 13215 0.738738
2638 8726 0.433357
9406 11607 0.834593
8244 6186 0.477184
19920 243 0.856235
1943 15980 0.538881
7380 7787 0.540944
5088 6808 0.143909
8147 5295 0.326386
6826 11293 0.204974
13523 1561 0.969059
3778 5008 0.430565
1198 15044 0.938336
9966 13138 0.90409
10967 6261 0.886307
10345 11710 0.690574
2393 18541 0.417737
584 17126 0.508145
8682 5058 0.33178
8202 3631 0.928514
9718 6131 0.356182
5522 13572 0.31151
7948 16842 0.490412
11513 9406 0.0524015
10850 10881 0.204346
12175 1107 0.578299
19580 17406 0.35275
16748 13066 0.281538
641 2836 0.64708
12191 7137 0.691712
13091 16561 0.02247
1205 1093 0.724705
6644 5177 0.208046
15044 3630 0.844444
9210 8207 0.6239
2879 7324 0.625637
6213 8929 0.700598
9225 2263 0.91586
8486 7524 0.184388
16132 2700 0.81201
1356 19016 0.40444
15517 3085 0.165294
7805 11217 0.740948
7974 5489 0.610545
8322 8262 0.611536
14393 9013 0.472566
5731 2835 0.497692
3838 1726 0.0257397
6105 2101 0.276755
11683 11261 0.866426
1445 7623 0.494036
6446 10931 0.0747772
1913 7391 0.376177
7246 4 0.863182
6177 9466 0.150822
11401 19115 0.744611
6613 9356 0.606265
2554 8340 0.82993
18745 12529 0.517666
11276 16800 0.791027
5684 12114 0.832703
6109 17960 0.578762
117 5284 0.669331
5281 2720 0.221241
1450 5470 0.165802
8257 14172 0.258371
2458 11174 0.0752323
7583 17993 0.0335771
5096 3535 0.430391
7094 10740 0.570286
13027 5390 0.182041
18447 7469 0.887864
1929 7222 0.663986
3029 14185 0.589246
19144 6318 0.616954
2581 5596 0.670376
11231 16758 0.746712
10416 15417 0.497096
18903 3782 0.897621
256 15524 0.880001
19633 9945 0.959867
7904 4689 0.231172
8484 5876 0.586285
8280 19784 0.279256
8607 4570 0.000977269
12114 11929 0.089673
8915 14547 0.205802
12825 5982 0.582702
3154 17486 0.512019
9379 5464 0.964005
17990 3954 0.578797
926 1827 0.726902
815 8306 0.644472
4762 8754 0.103751
239 15797 0.792265
16123 4157 0.358488
13038 17297 0.937757
4736 15248 0.590449
11909 11782 0.146928
8782 4277 0.670776
16283 14179 0.958983
17928 931 0.228897
15983 358 0.646599
2564 6867 0.682501
6033 7486 0.784447
6661 6233 0.092182
6279 4787 0.701701
6126 8202 0.221515
10118 2481 0.699861
948 14141 0.621466
11957 6380 0.203983
1477 3956 0.5467
3069 5829 0.195737
4528 15156 0.296705
16249 12781 0.211768
12643 16763 0.897551
6054 6744 0.672178
1320 1359 0.445311
3018 3025 0.577419
9903 6902 0.273456
5816 10887 0.937768
3190 591 0.796843
9390 15463 0.281593
3270 1446 0.180659
19208 558 0.256534
4721 18006 0.30764
9978 17753 0.0273326
4582 2761 0.810071
5874 8002 0.61926
18092 16789 0.18539
12867 205 0.726927
16551 2423 0.637448
18161 8751 0.3261
7972 5376 0.916999
4898 1752 0.866426
17180 314 0.212771
7998 7523 0.666966
48 6494 0.0868244
8896 8975 0.86728
13526 19240 0.764023
17169 9036 0.229659
3408 3355 0.588656
5089 17937 0.991544
6645 19237 0.364735
4748 1671 0.0350713
15322 4873 0.129965
2862 11486 0.672061
6564 11120 0.687012
18367 13560 0.622474
7299 7956 0.94461
7496 315 0.56463
13285 99 0.98155
16751 2961 0.542833
3927 5764 0.854277
6021 8007 0.357379
18806 1613 0.161963
8376 2171 0.425559
19154 970 0.971661
16027 5961 0.314231
5552 17189 0.190773
16501 18377 0.601381
14399 12348 0.333863
16356 11987 0.648645
666 918 0.843599
6089 709 0.945643
13614 16112 0.846805
6753 2724 0.631394
16408 2098 0.31447
15087 13371 0.759513
8539 9167 0.9221
5641 16274 0.837984
6817 3336 0.404731
13010 2093 0.0222485
10542 11383 0.998243
310 12048 0.22137
12687 15001 0.474218
4789 8940 0.053386
10634 7564 0.657838
12353 6678 0.0871353
19361 5694 0.302011
14094 1925 0.426359
3299 3894 0.238571
10394 10967 0.223417
12202 1242 0.97828
12716 11399 0.466641
5206 3451 0.202512
4847 6794 0.314035
19816 5910 0.345999
16788 9928 0.430903
1921 14245 0.510377
6947 3070 0.277772
7729 13695 0.831135
12419 10275 0.127777
1582 13289 0.442418
9051 14667 0.885114
3671 4592 0.629852
6599 1404 0.74471
12387 19254 0.234805
18578 10327 0.0504855
4387 15858 0.713752
6133 9157 0.20023
2501 1820 0.401004
3086 6903 0.245074
14373 7440 0.159257
9207 3405 0.488765
6439 10179 0.0726616
10526 2650 0.176341
916 5699 0.417516
7370 11274 0.948298
5793 5850 0.296313
3313 1300 0.480185
5004 4095 0.309185
4542 11818 0.815459
15799 17539 0.356206
2185 6520 0.312252
9739 11582 0.771964
647 5752 0.813348
710 2700 0.603327
658 13314 0.43258
1246 2390 0.499998
10416 1510 0.102575
13048 17883 0.25414
11118 18785 0.591225
11605 19877 0.775951
5547 7304 0.0828213
9470 86 0.943678
7265 12427 0.0417917
6678 8964 0.236355
704 6237 0.881621
12531 10722 0.330759
16824 4210 0.97189
5212 10041 0.351125
6496 7007 0.26173
6821 14224 0.44491
18087 6648 0.999161
5291 6839 0.00147555
3142 7586 0.652044
4227 5807 0.57004
1920 3241 0.22871
6495 7880 0.125903
3767 4009 0.573687
1611 14233 0.241235
4550 15732 0.449801
10771 8771 0.528587
10433 14476 0.453558
1235 6897 0.936144
3150 9863 0.0527394
3139 5815 0.0258474
9339 4747 0.732727
7664 4052 0.676342
12120 7637 0.555518
6018 5447 0.028609
3561 6326 0.0916262
15353 14134 0.930159
6477 10791 0.519666
8802 95 0.373237
6162 10424 0.480978
2170 4940 0.552456
6882 7709 0.974128
1788 9563 0.966805
10164 8213 0.725516
1608 3915 0.0728482
4502 13142 0.360387
2500 13140 0.0933819
6369 1979 0.163808
4986 9984 0.665953
2207 7599 0.843507
10289 10639 0.644977
4924 1352 0.662012
2233 1610 0.00211757
8036 6132 0.948803
12152 10871 0.877556
9133 14709 0.339325
17898 4287 0.533486
9056 2865 0.850741
9398 1956 0.500693
14163 16699 0.659936
3035 2597 0.75179
11362 10274 0.704236
3703 11508 0.227593
13776 1957 0.709338
7033 41 0.803403
1640 7430 0.0283433
955 10888 0.254038
3305 10354 0.515199
18218 5035 0.511535
7563 10711 0.126349
18930 14744 0.346065
14319 3981 0.431131
2067 15871 0.773323
11405 5635 0.428767
16255 13727 0.768734
7041 10725 0.541445
12200 14889 0.76869
14254 5507 0.809589
17242 19475 0.898933
6210 11457 0.970325
16634 7564 0.679893
7848 6731 0.127768
5529 12605 0.225131
12282 4089 0.536605
6571 8651 0.286301
1687 13109 0.143437
17443 19336 0.754983
14955 13652 0.313363
11694 5089 0.29471
10619 5460 0.902425
1496 18013 0.189247
4463 4066 0.14091
15797 10800 0.760838
9038 17781 0.0983733
8457 18762 0.531826
10176 13816 0.797502
15918 14195 0.584984
5408 4929 0.132653
12703 12074 0.596682
12469 3958 0.885788
16198 11775 0.464707
13455 7931 0.443794
3504 964 0.253231
5317 7028 0.666755
4762 14897 0.058593
8609 9882 0.55754
848 10638 0.364802
3840 17545 0.841379
3216 1502 0.291435
15162 16577 0.851152
2670 14324 0.393275
9283 17755 0.741201
2607 11555 0.494512
4010 6558 0.522949
1487 6795 0.89908
7468 271 0.996641
11198 12738 0.691447
5986 9139 0.913489
6115 12309 0.857847
16444 8994 0.149418
3782 11849 0.603327
16218 8009 0.542941
6959 11639 0.229181
1733 3798 0.522461
1835 1088 0.0886635
3809 18074 0.229681
13800 8240 0.0813019
613 3423 0.563795
19461 7561 0.0546835
1687 1895 0.263662
9851 12498 0.973535
17063 854 0.812896
4833 2701 0.596894
9354 8257 0.858123
8993 17625 0.982058
4453 10924 0.225984
5624 1828 0.958703
19830 8333 0.478225
8439 11136 0.771473
18575 14088 0.847627
1698 7542 0.763201
16686 8760 0.759689
9489 3659 0.442373
3932 4356 0.401725
7680 9209 0.158417
17666 7288 0.216228
9305 3701 0.741572
13200 15088 0.178129
11154 11597 0.0668966
2437 9151 0.363955
1051 9042 0.70824
8834 7676 0.68049
7369 6100 0.325736
4864 12437 0.623389
5462 2495 0.648936
19480 216 0.21385
3716 4330 0.935051
1274 11515 0.263939
4149 5699 0.600402
12510 4822 0.729296
18797 207 0.916834
4859 11990 0.916999
18418 10832 0.395611
3777 10973 0.776517
11907 1754 0.174292
16232 18534 0.133222
7905 338 0.453651
9998 7081 0.356206
2743 1985 0.166594
4988 13511 0.984941
2764 1007 0.641737
7621 4272 0.832994
5846 2543 0.556142
2493 4989 0.579325
6631 10240 0.512946
9579 4708 0.293675
4300 1635 0.435525
9353 7162 0.484228
12459 12151 0.9287
6596 5889 0.793903
550 589 0.132105
1572 9992 0.850399
2598 11371 0.231636
8468 2496 0.420054
3948 4115 0.292142
1783 17497 0.160004
16804 11180 0.0887093
3142 4530 0.0570491
15127 8606 0.654183
15620 18972 0.875865
1058 18440 0.0420397
511 8774 0.458518
12427 8069 0.298196
4069 1150 0.528804
9775 3667 0.995344
11518 2394 0.0278282
9525 1718 0.922642
2644 10273 0.670601
4542 11934 0.551747
11235 17297 0.0723995
9723 2821 0.434206
11578 11558 0.546852
12916 18774 0.665887
7616 9118 0.465832
5770 6458 0.069837
9902 17789 0.318328
12073 14080 0.537618
2680 3561 0.958611
1046 15863 0.374641
10668 14316 0.00265541
5698 15377 0.98699
12144 3056 0.337689
16656 1137 0.485388
4606 19837 0.767944
11368 2315 0.318082
12186 11684 0.628895
8984 11879 0.0555526
8575 18885 0.250185
13439 5146 0.904492
17237 7883 0.593697
15217 4551 0.341348
16415 11245 0.0833365
14070 16874 0.407686
2379 6160 0.767992
1953 19707 0.00827554
361 16002 0.699946
12644 10903 0.458748
4405 19105 0.347222
12377 18951 0.101902
11025 5065 0.502517
7030 899 0.18675
11464 4295 0.616843
6914 12944 0.242233
10042 7100 0.670105
7301 1670 0.6457
9928 4501 0.860178
14161 14103 0.558632
18278 4186 0.75384
10753 14841 0.234278
4174 2844 0.411952
2656 13530 0.548384
13547 6852 0.589913
19989 14070 0.171642
2066 6116 0.983837
5680 16401 0.686039
226 1924 0.354293
11249 2313 0.865021
12051 10370 0.232107
11657 3013 0.825609
9920 9287 0.650176
17656 4424 0.594164
3862 6794 0.489491
5046 3581 0.18707
6741 3161 0.31861
8131 14760 0.480604
17885 16483 0.884825
1918 2134 0.0616437
4686 8265 0.379469
3068 13108 0.611235
2498 3078 0.796014
6235 3983 0.0839771
6651 2941 0.38535
4642 8413 0.338411
12069 12665 0.755463
5542 172 0.517474
4770 19833 0.266509
4431 4057 0.319749
11684 11231 0.928321
12455 4044 0.494864
2396 2183 0.377281
18761 1090 0.17852
5438 2197 0.437293
1132 11120 0.806331
3455 12668 0.458609
18150 12749 0.714385
218 19588 0.753536
8335 1203 0.826979
3620 8742 0.527076
5846 14272 0.39196
6493 7345 0.791402
11786 11811 0.130888
6609 6662 0.374779
10416 10266 0.0318085
8054 4131 0.628278
1102 8045 0.500494
4817 8889 0.0520799
6776 14316 0.896354
4850 12767 0.440812
7097 5632 0.33553
5497 6624 0.269991
4648 10329 0.466796
673 12791 0.0816017
1775 3734 0.279391
6750 5598 0.693113
9446 12001 0.0205733
19783 3919 0.233378
3412 2327 0.555613
16653 11108 0.601788
3640 3651 0.488135
17699 2267 0.317349
10242 9623 0.480978
449 18640 0.40123
7252 11071 0.638212
16503 18266 0.0580044
8049 13939 0.859111
12546 5062 0.189949
18033 14449 0.549284
8032 1752 0.125903
423 6108 0.858561
8033 10275 0.0423679
557 951 0.241749
2364 19139 0.401674
18702 6204 0.392715
2071 13536 0.221405
9673 5061 0.61888
11837 16194 0.114337
427 1403 0.124983
390 11908 0.132164
3311 14526 0.627566
3957 7014 0.901978
19598 3482 0.236825
3201 9731 0.24855
5615 7773 0.557165
4656 11204 0.0203937
58 8254 0.132104
9796 1776 0.618425
692 9758 0.391926
8464 1742 0.154272
3162 7847 0.169578
10935 3835 0.170533
2179 1986 0.692823
1270 16267 0.870056
9933 3659 0.433293
1468 10893 0.639572
10001 19185 0.685947
12468 9176 0.593218
17081 1492 0.98361
2805 19349 0.155859
4944 2404 0.0674395
490 2651 0.258845
727 6879 0.232576
16110 4448 0.737053
19300 12592 0.86011
11297 587 0.671275
2940 2814 0.674112
1888 13276 0.244406
12652 8696 0.456836
1031 2248 0.621589
8463 1509 0.553151
8591 13618 0.154769
7558 11497 0.28074
1793 18218 0.712194
9060 7785 0.0671657
10093 18028 0.00906482
5052 7221 0.103348
17491 4392 0.7653
3617 9429 0.303804
7567 8370 0.406731
8225 15370 0.497093
15110 5141 0.632785
6709 8707 0.929511
8523 2346 0.263662
14883 12595 0.481401
10377 934 0.584544
9067 17168 0.587587
2490 2647 0.732395
17070 8598 0.0990668
4289 1658 0.131576
3796 1786 0.833379
10845 16277 0.258651
15894 2470 0.640507
4230 3352 0.385026
9437 14201 0.514035
1451 10787 0.682786
5731 453 0.312627
8606 7695 0.578797
5730 6201 0.400646
14571 11345 0.786956
2285 8137 0.705651
14574 12204 0.0451677
6544 12729 0.441631
2647 175 0.149715
6326 12186 0.482083
14740 1159 0.129261
9970 8464 0.261257
1175 8207 0.327964
4492 11079 0.523569
10258 8219 0.128458
17386 4969 0.941498
7100 18937 0.49935
10998 7713 0.742371
8628 7495 0.989897
2508 6476 0.218765
18525 2486 0.739162
14553 6787 0.674854
10545 4794 0.979705
7640 4975 0.390211
1223 2387 0.910273
11569 18742 0.646726
4164 8452 0.267381
13386 17488 0.00386979
15820 7225 0.54578
9454 10568 0.320389
11792 4819 0.15586
4927 6188 0.0788337
6369 789 0.884343
2618 6450 0.641305
15021 8436 0.965487
5601 4317 0.786971
6097 2454 0.64716
18771 12009 0.909107
6295 5566 0.364649
833 12343 0.501169
4573 1563 0.778224
7591 7822 0.749433
8588 5804 0.0714418
1145 12650 0.109242
2221 12361 0.0644972
6454 5126 0.702535
2653 17002 0.577027
19706 9279 0.484518
11334 13536 0.974168
2432 1752 0.161602
2928 1608 0.386406
6127 16752 0.641129
8862 18010 0.429001
15982 14900 0.168798
5454 19127 0.0466745
15092 10413 0.251989
5417 9590 0.802918
19574 15780 0.140563
583 12260 0.470219
15668 4848 0.320976
18508 8170 0.802009
1391 17930 0.576729
17617 12681 0.727789
17990 1055 0.00820158
4099 9946 0.515456
14542 15170 0.00613274
1005 15559 0.627055
3950 3446 0.927203
3709 635 0.662986
9990 9686 0.942415
11187 4424 0.814163
7956 2509 0.233414
8117 12768 0.802086
9893 5612 0.64283
8795 7747 0.474338
7317 10815 0.252496
9362 920 0.784266
9311 5288 0.190607
18191 17495 0.308276
9994 12368 0.887875
1236 6260 0.801824
18331 11131 0.880222
5739 4410 0.895852
6125 9093 0.147626
9720 5490 0.676202
5220 13498 0.251536
3516 15193 0.168285
5117 2170 0.761729
6268 1789 0.768854
16883 13226 0.230671
16166 9824 0.352978
9318 16378 0.779244
6408 17113 0.239475
18295 4381 0.117612
11803 7973 0.227656
17975 15383 0.425045
6139 17912 0.944337
10852 16055 0.197917
15877 18235 0.282108
11511 13406 0.510377
11385 6861 0.587587
2741 562 0.659374
13198 11638 0.685526
16 11780 0.0676835
12284 3116 0.937588
8372 6942 0.584651
16215 8906 0.464463
3022 5951 0.307029
3407 19170 0.960532
19074 11574 0.883316
18543 8200 0.943647
9697 3698 0.523366
11998 7364 0.195321
9596 6618 0.192122
12335 14868 0.64554
11107 9385 0.287405
7105 6315 0.634846
3789 7876 0.363491
1244 11831 0.781484
12688 10967 0.279367
9956 1408 0.452005
4742 13164 0.814573
9163 5286 0.263078
16035 14904 0.373213
15106 3130 0.747767
11146 9200 0.0842741
10458 6056 0.0141151
7603 13008 0.488082
3506 3838 0.95137
12590 2241 0.522461
1198 5565 0.24855
1033 3581 0.0629415
14954 11686 0.195083
3812 11886 0.379787
16320 2967 0.375041
6014 2786 0.443583
10539 16636 0.949443
18715 12267 0.678662
8093 2969 0.467096
19561 1352 0.228554
14593 8707 0.153854
6615 1764 0.731876
16001 10772 0.0548311
7701 9275 0.751815
413 9648 0.958087
8025 10185 0.355959
6361 7229 0.840134
7015 12018 0.34573
6837 16470 0.69337
5459 11210 0.632601
7266 10418 0.369797
19156 8314 0.817012
10307 13446 0.898339
859 1240 0.582692
9816 6517 0.652298
1948 4184 0.631119
6706 17568 0.927894
17872 10414 0.783767
19976 11325 0.993734
6958 11682 0.986538
9155 4098 0.804379
9670 1485 0.27537
19018 8021 0.00277497
7287 7966 0.53357
3351 3764 0.913969
2051 5622 0.32288
248 11304 0.762693
3498 7552 0.716112
17839 10646 0.103416
16466 14949 0.381496
10166 14100 0.320996
10999 19101 0.222191
2203 4176 0.106486
12014 6358 0.342932
7506 1475 0.117533
4674 2438 0.822158
13932 5654 0.91657
265 11045 0.698085
5810 12221 0.989234
5257 9477 0.985051
18602 1863 0.706057
15441 19034 0.672764
10747 4566 0.231385
32 4176 0.515296
3451 4775 0.897088
12396 7349 0.933687
15462 17059 0.658031
3647 5229 0.117779
2381 7781 0.215092
2737 6696 0.204449
7436 3242 0.729057
2333 16106 0.0019353
11633 5974 0.48561
1242 584 0.165564
2397 5103 0.241634
12365 8599 0.375805
9322 7261 0.555518
7741 17105 0.331754
1019 5878 0.433585
5647 15542 0.484868
11 12618 0.619141
9484 16354 0.380704
5915 7572 0.847095
763 17044 0.324223
7879 10467 0.00368122
2963 1147 0.167065
799 11046 0.729089
10660 12603 0.250031
10360 15957 0.264954
3363 6619 0.273784
3097 18742 0.696174
4905 8867 0.106519
11543 18806 0.767941
1212 6004 0.209613
6567 5669 0.886924
7760 15560 0.346884
2879 5649 0.906275
15191 16819 0.461828
17385 3639 0.00377924
13401 16302 0.0934717
15372 7830 0.0460448
9930 5284 0.0291304
4141 258 0.160573
12406 2538 0.676341
3330 5208 0.260115
11513 13031 0.377676
4868 7498 0.712098
3248 9899 0.314231
18858 1454 0.178019
4923 8437 0.901375
9960 311 0.853523
5438 3495 0.535781
12035 3861 0.0938974
19106 13192 0.630205
15639 19094 0.879226
18311 7578 0.712285
6578 2227 0.661743
6580 4756 0.246745
13247 16188 0.918894
3435 9908 0.132418
5334 9441 0.110197
3203 8157 0.575233
5401 5496 0.242986
1219 2724 0.605318
12112 9020 0.22066
1487 10171 0.899163
6409 10940 0.728558
883 523 0.299572
12415 6745 0.506721
191 12642 0.471478
15023 19133 0.474063
19492 1476 0.125025
11533 1721 0.626029
2933 12474 0.70845
8438 356 0.704346
12634 7214 0.986161
10894 1322 0.709128
10838 7778 0.305323
952 6946 0.11504
5223 11818 0.331373
9204 506 0.364274
18248 14802 0.199256
1334 11473 0.430718
1370 1463 0.677235
14914 15731 0.290142
2075 9833 0.637649
19552 5150 0.0917756
12055 2802 0.160233
12337 10472 0.0605015
15577 13665 0.703294
11339 7087 0.690256
12060 4537 0.394049
14167 18672 0.222146
7423 3704 0.659222
3294 16578 0.255034
3331 9236 0.360737
13459 9744 0.739165
16827 10522 0.534414
5800 8919 0.65837
3671 2507 0.913855
10497 11061 0.867631
364 3682 0.870464
1225 16378 0.702003
8289 15842 0.186975
2248 13153 0.767309
11501 4530 0.637708
1884 350 0.938607
16573 14867 0.998991
10249 10423 0.68306
14625 5816 0.761275
5118 9494 0.617103
16701 9621 0.79174
6898 12184 0.889644
2618 17032 0.561369
4023 1364 0.602116
8023 8354 0.934196
9817 11841 0.0180692
8721 6750 0.89824
6745 1837 0.396284
15045 5713 0.294397
15690 9159 0.896139
19740 9095 0.536166
5129 7777 0.044737
8316 7000 0.721326
11138 6882 0.442633
10038 2196 0.369368
368 3547 0.599408
14008 3160 0.250957
3975 8855 0.853177
11509 2544 0.451794
18529 14479 0.998505
12955 8175 0.791956
3125 2991 0.102884
13928 11183 0.996845
236 8852 0.0154226
15320 9769 0.810071
5436 16634 0.924495
3857 6817 0.745506
13738 15197 0.533513
5529 8897 0.878346
25 7962 0.607196
2147 6432 0.761009
3621 10808 0.416156
10619 1213 0.118625
17098 15767 0.887255
11425 1029 0.916988
4147 10413 0.380502
11292 2407 0.190426
9462 5298 0.355538
9662 15285 0.0746688
203 5308 0.312143
15397 6492 0.28606
9930 12738 0.328372
4924 19035 0.949245
7372 3455 0.566207
10247 18497 0.343907
9951 5990 0.0935534
17318 2319 0.186227
4268 14811 0.644727
832 11221 0.487787
1999 17849 0.596611
9053 2066 0.823236
2837 2232 0.460814
6858 5854 0.632897
1025 9608 0.410642
2437 1500 0.781337
2765 3714 0.51217
8422 202 0.694726
16676 14113 0.149407
15323 10217 0.750072
5222 10483 0.238614
12439 1230 0.079422
9366 6172 0.747522
222 4061 0.512302
3620 2719 0.701378
593 14342 0.802717
2057 8792 0.24147
7118 2874 0.786484
7691 7015 0.64654
3487 11602 0.826857
16977 5386 0.668701
8530 909 0.146401
8298 10357 0.255384
7680 7574 0.356473
12301 7815 0.693
12759 10884 0.175075
17630 18056 0.720173
6167 7503 0.0352602
13342 2093 0.0106375
11897 8569 0.396076
15819 13642 0.343618
12653 7182 0.0851807
2376 3433 0.700537
1554 6992 0.599572
13712 9192 0.738837
19030 6812 0.454329
8440 2465 0.675744
12885 5833 0.39443
9560 15146 0.630065
18387 8458 0.860933
18416 7652 0.876318
2258 8510 0.584796
12716 15452 0.0843312
10792 5919 0.307016
4160 19843 0.723905
19589 6217 0.306285
10559 5083 0.581493
2483 17516 0.367501
967 266 0.878013
5070 7166 0.311795
2985 13975 0.599959
2774 4576 0.722737
4181 18382 0.564906
3434 4884 0.324271
11420 5638 0.946887
9707 6765 0.794684
6031 17935 0.260461
11392 12246 0.821005
1669 5636 0.414792
3623 365 0.166065
15132 5417 0.969823
7771 19655 0.233216
11884 13853 0.839853
2179 13128 0.330697
15089 12366 0.693363
19998 8708 0.0294405
12024 10398 0.0101896
11462 10781 0.927737
7159 11510 0.695131
7556 7543 0.0870847
9352 10103 0.233242
8087 7580 0.129118
3414 4505 0.321656
5165 13416 0.510377
12395 3087 0.177029
14797 2869 0.489681
5601 12014 0.346547
13792 8076 0.470696
4668 3376 0.625473
17741 122 0.596759
16785 10753 0.821493
12833 1801 0.514533
10852 73 0.777104
10245 4380 0.998505
6304 13776 0.488978
8155 3058 0.46325
19406 439 0.140803
6910 8935 0.155763
361 8555 0.420977
9822 2728 0.122593
13070 17188 0.347164
4880 6082 0.580944
240 9524 0.158777
6283 4202 0.791964
992 10308 0.139063
13708 5970 0.44485
12256 15574 0.210791
5933 7892 0.659512
8053 1506 0.245021
15822 9924 0.244484
1599 4145 0.408198
7476 3755 0.0507201
10813 8883 0.82688
2608 19995 0.630065
12079 5 0.517745
1790 14449 0.85466
11650 1693 0.0723803
19792 11472 0.605923
6593 7121 0.340332
6756 13780 0.801961
10947 3304 0.94475
5724 5057 0.0712873
12252 7392 0.930967
8167 7346 0.961422
9144 3788 0.924093
258 6121 0.757893
11447 11034 0.643163
18399 9565 0.618991
4782 5869 0.278281
7297 9583 0.570743
15039 3154 0.984442
6158 15135 0.203407
11594 2170 0.706156
3839 8100 0.66361
14401 202 0.737866
18305 7420 0.203191
12013 7450 0.222446
14585 2959 0.950718
8546 10656 0.220472
14168 9116 0.768812
11995 8564 0.716567
17840 16948 0.901774
1379 8780 0.454306
17500 68 0.301189
4612 6889 0.637735
14667 19929 0.788985
4272 13387 0.898465
999 7815 0.762498
17536 3012 0.797407
10525 14781 0.242735
14589 4091 0.550389
18550 7876 0.514104
18983 19411 0.168893
7048 879 0.581019
9331 2954 0.72262
11546 7903 0.423504
17484 19150 0.629721
4965 4926 0.403691
7510 8953 0.481411
11749 17187 0.79955
13284 10155 0.671919
1503 1605 0.281718
4363 7594 0.42444
12359 661 0.674632
12553 7825 0.198959
5803 16573 0.741379
19334 18662 0.976193
6790 2052 0.408719
14746 6759 0.524127
4900 1437 0.313531
11382 7747 0.297489
19481 6007 0.506309
3445 10957 0.196054
9498 3031 0.470634
199 152 0.531626
2575 19368 0.0271825
148 3268 0.831449
1657 4001 0.588826
5432 1677 0.451443
7076 7105 0.190118
5922 6406 0.676625
3798 12160 0.0361811
8912 4072 0.509255
667 14047 0.576267
19942 17559 0.159066
12390 8578 0.411939
8742 5398 0.33084
9560 1852 0.30458
8825 2310 0.73181
9066 3566 0.680048
6381 10987 0.234107
8984 1136 0.788299
4395 19970 0.352458
10054 8065 0.34584
18179 1675 0.247647
116 2874 0.276011
11805 3054 0.354355
4691 455 0.458518
6581 6258 0.663445
7017 4986 0.915277
9888 4434 0.299506
4807 2811 0.477365
4432 10086 0.474392
4949 4615 0.8318
11497 4910 0.0876355
4414 4849 0.383014
6968 925 0.867666
18388 16310 0.367085
15180 754 0.628622
14968 13811 0.0220099
4737 11221 0.173273
13445 11793 0.967755
9999 10789 0.53909
3362 15253 0.930648
19642 18924 0.223902
1007 9415 0.909207
12083 12886 0.204531
13248 10344 0.741986
19696 10699 0.538831
1301 1299 0.263527
8362 3662 0.366178
16292 10792 0.0835765
2787 13036 0.909626
5025 18428 0.802925
1187 99 0.474321
1177 5554 0.858015
11681 18346 0.237503
2306 1375 0.576138
15398 16608 0.429187
18120 12645 0.807483
2077 3845 0.920819
9471 7112 0.590208
6553 2966 0.180734
6542 13635 0.8363
13983 10808 0.154272
15469 9819 0.394432
6212 3650 0.899098
10945 4853 0.893296
17876 7038 0.809514
4369 7550 0.999244
6792 2550 0.991033
8646 18043 0.747545
18408 18232 0.0353904
8145 605 0.52182
17408 3821 0.376828
6022 10039 0.736124
12601 12214 0.414654
17281 5580 0.00455001
4560 4033 0.475899
18834 8209 0.614508
16102 10331 0.973271
9103 5125 0.33176
5751 4741 0.778389
4481 13805 0.330405
7015 11076 0.476353
6879 12806 0.284092
4897 16998 0.509303
15335 13026 0.821334
9200 11904 0.961422
1736 18980 0.767786
6469 10352 0.183776
12781 18833 0.606166
14390 7550 0.584336
1104 14519 0.589772
1945 19923 0.214862
7852 15714 0.94955
9264 5137 0.768438
3131 3536 0.649906
15894 9844 0.688589
7704 725 0.101453
8025 2941 0.923095
12718 100 0.55025
5979 14212 0.473941
15973 2296 0.401227
18487 10665 0.88888
16271 17321 0.33528
4907 6429 0.184514
5910 10912 0.931299
3754 11884 0.348899
15301 7878 0.564127
1101 6832 0.380787
7634 9892 0.167419
14293 3217 0.47928
12092 10343 0.996199
7461 1267 0.408178
1973 6649 0.342424
8168 13382 0.914137
9416 8700 0.350897
17327 11288 0.310896
17422 8941 0.517962
10383 10198 0.950689
16467 2598 0.120001
14031 14313 0.482144
15039 5591 0.775803
2128 16072 0.0243851
14211 616 0.75318
10624 13312 0.653157
1594 10775 0.536539
6693 788 0.823312
969 5352 0.268192
1737 7967 0.466963
2003 19664 0.0726391
19780 8334 0.10585
10219 15255 0.255622
10456 4255 0.766095
14788 2761 0.978532
12509 4206 0.803043
8220 9310 0.540455
8657 6805 0.0447939
14192 794 0.930494
5921 2833 0.912254
13155 10535 0.285562
94 8567 0.486633
12417 7519 0.777879
3153 4177 0.0694985
7423 9058 0.743973
3093 3423 0.170901
1192 6501 0.186549
14508 12596 0.662456
12255 657 0.651615
4622 18819 0.145266
16072 347 0.947456
6289 17941 0.140315
2271 1231 0.806421
4795 13241 0.344241
17736 8685 0.324271
498 3715 0.196662
13422 11415 0.277806
5310 3813 0.48847
8218 7603 0.42664
1376 10210 0.0873871
248 7233 0.226007
6482 7763 0.262496
4639 967 0.842783
6305 191 0.218639
8599 765 0.892447
3278 16937 0.848117
1544 7911 0.528562
11374 3552 0.493846
19449 16373 0.0315868
3498 8751 0.538259
7225 8800 0.974677
5381 2540 0.156687
16598 8840 0.672755
9202 10639 0.910908
9070 7624 0.243135
6871 9670 0.50588
5707 15781 0.877143
1376 11648 0.546126
13068 15867 0.0574167
11858 8160 0.0583641
15276 8885 0.639998
2955 13995 0.8071
9683 6502 0.598056
7685 17887 0.601194
19725 2248 0.149474
4655 18687 0.626853
9720 15294 0.114416
7106 17836 0.842802
5835 916 0.268952
11105 5985 0.484933
17372 7520 0.2467
4118 11830 0.755807
16332 3855 0.239183
10080 8351 0.972509
10350 406 0.588826
15678 4514 0.664814
10590 32 0.984981
15254 4843 0.478861
1059 11164 0.670466
8302 11650 0.624418
1843 13830 0.55967
435 1733 0.755572
11580 2567 0.938389
9314 13154 0.00882613
6540 1158 0.582102
3918 10597 0.08851
16690 14396 0.663685
1839 7678 0.619864
2191 16502 0.0739905
3327 12622 0.930255
4868 865 0.0508983
8332 17067 0.930515
11159 11100 0.365457
19998 11391 0.00126968
1307 9620 0.699669
2925 2878 0.557705
11100 14640 0.0529835
3900 4204 0.265285
2537 9907 0.401043
19747 10969 0.794877
3553 8338 0.260395
4062 7229 0.648934
6609 8866 0.00143173
5010 1147 0.486633
17170 13393 0.907735
4920 1226 0.0225778
4202 2610 0.511535
6634 12483 0.1596
11022 2245 0.937352
19193 3614 0.599026
3787 2015 0.483568
4675 7865 0.664843
9533 13564 0.153297
8819 14196 0.377539
7521 826 0.32717
1407 10092 0.217097
13374 16214 0.438489
13085 4308 0.951608
397 19706 0.0036351
18870 10912 0.460827
974 11957 0.91273
899 9407 0.506739
10799 391 0.243884
15716 1507 0.0641662
12549 19084 0.914605
7693 823 0.73604
7362 4227 0.629924
7553 1530 0.829975
16526 7525 0.820154
5791 5914 0.102069
11634 2664 0.175313
13271 19444 0.717266
12071 19868 0.13049
8491 8556 0.109207
11637 3163 0.147038
3735 3540 0.526786
6925 2978 0.930633
147 4812 0.833718
10121 10665 0.336956
12168 5703 0.685947
7801 13436 0.146241
15867 3704 0.136318
4476 4595 0.54327
11092 9458 0.693895
7483 5549 0.339411
12243 2433 0.181307
10145 17593 0.0603724
4394 1317 0.246875
12603 4841 0.0771834
5858 2719 0.872785
5827 8209 0.338919
14949 13113 0.202545
10508 19883 0.461797
10526 3132 0.724308
6143 18569 0.470514
934 788 0.129118
6928 18854 0.969856
9774 1572 0.492089
1672 11001 0.31728
3997 11629 0.026113
14521 12430 0.0769337
12234 9459 0.416776
4972 13167 0.717034
7427 7931 0.569602
2554 5216 0.525388
10166 11597 0.446421
4496 8671 0.713382
1036 10460 0.124916
10649 1264 0.787762
16693 3673 0.992696
4926 3084 0.204072
10192 18387 0.195321
19146 5304 0.0331123
9942 18524 0.024919
856 4995 0.275095
6142 12902 0.500494
18663 5533 0.473069
8774 18039 0.842804
5770 18026 0.88692
8057 19738 0.00998335
4842 16154 0.895307
13730 12092 0.41943
15335 12 0.296795
16601 2447 0.97061
4179 9497 0.794124
4321 12749 0.760181
12465 10683 0.912363
6960 11830 0.30239
437 8617 0.401992
10865 3827 0.110872
67 8958 0.51698
397 17797 0.187299
4767 3139 0.294262
10174 12454 0.419214
1539 19767 0.512386
16478 19046 0.659841
4783 16041 0.76869
13730 7026 0.101714
6570 11122 0.370788
2524 4599 0.407781
9813 4383 0.0362613
6117 614 0.536767
2538 1640 0.152984
10646 17126 0.710913
9272 6962 0.280282
9430 2461 0.492668
6356 400 0.0394927
935 15791 0.939056
9948 7941 0.780866
5875 15208 0.963426
12530 16149 0.278876
12674 8637 0.496119
9893 8019 0.749018
4594 6643 0.790667
8688 11488 0.724308
7132 4986 0.0839029
14075 11736 0.781363
1233 2967 0.919465
906 19581 0.885347
3517 10424 0.133734
6075 2512 0.701097
13849 3304 0.0416768
16427 12562 0.696835
8811 10607 0.479109
10021 2551 0.806642
10941 18159 0.977588
6082 7215 0.548083
8345 13618 0.170526
4374 17202 0.803473
11058 1266 0.323074
12220 6633 0.302984
3538 13373 0.470533
8577 6684 0.458678
6717 705 0.157294
5987 11827 0.261198
11284 14367 0.141749
10079 8606 0.5611
6736 3604 0.592722
15541 10218 0.355877
11408 17090 0.934602
4698 12204 0.845356
9721 8952 0.364162
12999 4559 0.326642
10560 3458 0.308943
12441 7790 0.460094
15271 1245 0.116039
331 11100 0.99874
7833 3630 0.0624471
4778 5098 0.664603
4333 17691 0.16423
3932 6872 0.384129
482 1182 0.761013
8942 8760 0.481158
10490 12193 0.712771
3352 12979 0.641949
3019 1620 0.438299
3514 4999 0.634687
9444 9327 0.993252
7130 7312 0.657427
12371 8332 0.278045
2337 5551 0.163089
15313 10298 0.83006
11713 1725 0.106913
8361 19124 0.56692
10987 18124 0.0183674
9816 4988 0.45745
14467 6840 0.623832
11236 5828 0.0912867
3629 14685 0.110517
7149 12466 0.505877
6018 17284 0.0959555
4238 17040 0.415475
5773 10061 0.823521
16640 7923 0.754896
10676 10453 0.0848674
19295 2080 0.880222
4392 2703 0.760534
11650 16317 0.566898
5496 10664 0.989897
8821 4480 0.691675
137 4044 0.762692
2803 2464 0.506309
11542 2055 0.43366
4417 11020 0.126105
8443 616 0.454185
2618 6527 0.745826
5828 6011 0.874222
10071 14062 0.132253
1458 4628 0.489053
18134 2833 0.811397
9032 14658 0.218175
10843 14604 0.806778
15618 1072 0.981056
7287 17128 0.237897
5708 14049 0.478073
681 7024 0.986538
13527 3001 0.573513
13024 5254 0.394037
731 536 0.840171
4035 1856 0.221529
62 19628 0.446064
19064 4498 0.251942
9216 4508 0.00811539
10781 1960 0.576581
14326 8502 0.237699
3724 10464 0.596917
11097 1600 0.991132
3396 3992 0.355483
9438 4962 0.423627
4089 716 0.205686
3773 5454 0.972106
10484 7946 0.873266
4968 9172 0.366352
14367 521 0.399139
10699 7872 0.563795
1553 17153 0.553062
12029 2113 0.504907
7349 15367 0.751192
3911 1705 0.648577
8181 3180 0.134768
5379 11179 0.0916098
5354 4687 0.0165739
6002 17350 0.384939
3673 1309 0.382262
7301 2700 0.470219
6665 2565 0.152248
4663 19373 0.659013
2340 17901 0.94475
17012 5217 0.302815
5975 19977 0.84529
7807 8493 0.293074
9335 10846 0.831385
3831 10605 0.864975
16643 18083 0.955034
5783 8874 0.0870672
12776 10520 0.654748
6682 1443 0.975044
15705 12262 0.032779
1052 12549 0.580816
1285 15633 0.212849
7761 3182 0.805339
8347 7346 0.700552
6997 4251 0.743928
1776 8857 0.649538
6485 7227 0.43896
18222 11134 0.140439
2372 4594 0.496518
13836 16563 0.320976
13874 12044 0.808741
2114 18934 0.754392
14053 5123 0.277675
10382 11773 0.620207
2293 5843 0.183849
443 14409 0.550919
16880 10276 0.175461
7119 13511 0.443341
1380 12543 0.742749
18115 7211 0.00386979
3465 9380 0.833935
12668 18592 0.248173
5565 10819 0.325479
11115 1194 0.041982
9611 10363 0.587945
1892 19993 0.028609
2983 3057 0.326418
722 10048 0.105468
7182 8137 0.575642
3631 12483 0.219815
14010 3444 0.678051
19003 17659 0.836328
10876 19216 0.118932
6425 16546 0.760753
6254 9534 0.19985
12488 2159 0.161075
9427 10621 0.210697
520 11541 0.743496
2897 11783 0.50236
9845 4028 0.494495
9463 12548 0.885516
12757 6047 0.409209
16518 805 0.861448
1792 6438 0.565692
3205 5474 0.696891
7955 18617 0.752717
1143 10707 0.417739
2965 12059 0.49323
15002 8095 0.0338147
5372 7373 0.053386
14336 6487 0.149722
12684 9867 0.739752
1360 17330 0.427905
2613 81 0.0103474
968 5754 0.311385
5864 15375 0.626356
4327 3335 0.270078
10921 6762 0.566898
19470 14362 0.691396
11411 450 0.0944608
12718 15303 0.960708
4809 1102 0.260635
9246 13158 0.492462
9247 12200 0.0972175
14791 19076 0.524219
13238 2865 0.804529
2136 6684 0.981105
17031 7140 0.598433
12709 19701 0.542096
8119 10156 0.962401
1939 8913 0.532307
15505 14554 0.650924
9438 4387 0.207205
2802 6524 0.138999
11891 5555 0.35585
6373 3640 0.605494
2241 253 0.683442
10221 6894 0.586831
9031 12614 0.200939
3686 19957 0.1651
8177 9397 0.689356
18599 15324 0.973767
6298 676 0.659163
6820 735 0.208336
6393 12741 0.535402
8590 8370 0.687083
14514 11193 0.333711
6236 74 0.584943
350 4265 0.293282
1527 17147 0.924422
19101 1738 0.0051381
1281 2115 0.161318
1671 10553 0.212549
2360 15110 0.731432
9590 8206 0.35438
6051 3554 0.957406
8046 878 0.954643
9963 7684 0.0798945
10892 5358 0.673233
3278 11096 0.166082
12973 1187 0.929812
669 6105 0.502828
8064 155 0.329121
14228 1167 0.0561361
1928 8684 0.535661
8587 10158 0.804392
9651 8041 0.703446
6039 5813 0.516821
3792 8297 0.751303
3814 10499 0.306384
4342 2748 0.0904026
14057 8003 0.874197
6020 15740 0.502744
12328 7327 0.875574
9450 8223 0.452609
253 19045 0.658682
12920 11000 0.355414
12570 14263 0.0542707
19554 18176 0.913048
17844 16564 0.700095
2805 1457 0.101427
4634 12308 0.998813
3717 15017 0.561403
11470 5924 0.969882
17572 3849 0.826486
7877 5037 0.684433
17867 11682 0.893017
4116 9207 0.658589
5299 3207 0.313783
5221 4413 0.157868
16388 17023 0.93307
9387 8810 0.0739905
451 2240 0.0861855
6568 2364 0.937693
9925 2317 0.886185
6258 2324 0.478592
4974 4585 0.405552
17886 3594 0.53421
4017 12015 0.808374
19011 1010 0.928741
1665 12580 0.448783
2075 1711 0.205142
5209 579 0.220735
4535 6558 0.00449504
15441 6258 0.730634
3104 985 0.597136
8450 3768 0.831826
4499 9780 0.251127
960 1150 0.500511
9536 233 0.434136
1038 13166 0.349914
9487 4744 0.396387
9467 4594 0.928126
2275 4948 0.722737
8945 7748 0.653018
12084 2842 0.369518
18779 7748 0.583038
6990 7639 0.764821
11677 4335 0.83675
13800 4546 0.163331
7218 9762 0.419036
378 4387 0.341017
15872 889 0.109499
5940 17580 0.180222
4886 2963 0.350515
1528 4235 0.463109
18037 16232 0.00435422
1508 6756 0.0827627
4299 3899 0.222785
8209 18755 0.19409
2415 487 0.592722
9230 8615 0.64692
9092 13882 0.13809
9070 4776 0.657474
4118 4891 0.725321
4680 15923 0.593984
5480 17321 0.17498
4784 10523 0.0726925
33 3219 0.3255
2037 2944 0.258316
12100 11581 0.644795
10811 1168 0.278239
10113 683 0.019696
7693 18766 0.112611
13917 3898 0.209767
13706 11762 0.973444
5806 8268 0.416891
2642 4294 0.49131
12022 4169 0.407268
1999 15483 0.0183112
18758 10157 0.919819
15373 4657 0.615589
12097 4531 0.522524
11970 4536 0.872089
48 9001 0.0591496
1748 10352 0.750677
3522 12678 0.845655
7852 4485 0.755572
217 7365 0.109634
12738 9181 0.18747
3545 8956 0.0907912
2860 8154 0.827446
9404 8005 0.226143
11046 7815 0.712117
19110 8675 0.0749514
5027 1643 0.794124
7847 4407 0.52605
18610 11667 0.910797
15181 13000 0.161023
1275 2845 0.43366
7079 1427 0.227007
4895 14574 0.00497729
2080 2989 0.377941
5509 14965 0.103584
5232 7352 0.797155
10086 6138 0.354496
7298 3888 0.472171
265 5892 0.381663
14798 3826 0.652319
13783 15160 0.272675
15030 8949 0.596111
13113 7420 0.390336
765 6524 0.440296
13324 6642 0.716484
16942 1573 0.378515
5627 5309 0.122458
6463 10380 0.0582082
6026 1940 0.184592
4001 3530 0.0558021
9642 15588 0.196738
10198 14167 0.523468
6073 1248 0.943116
11309 17591 0.684276
3498 2449 0.114147
2424 4749 0.733224
6985 10177 0.594793
7910 9486 0.419856
7111 8642 0.439953
97 6857 0.230391
3624 6693 0.801287
9130 6945 0.251421
8154 15832 0.694353
7830 6385 0.294603
9963 12911 0.371293
2854 10706 0.0405233
13259 13574 0.351954
6945 1556 0.533513
4515 19978 0.533005
11021 1795 0.16699
726 18853 0.15111
19954 15160 0.545608
7704 11450 0.760655
1614 8432 0.283685
7769 10905 0.0947796
9978 594 0.143976
1827 8080 0.158951
15103 6544 0.261113
9307 7391 0.462605
6699 10259 0.0293787
1414 17838 0.770838
10233 4650 0.137668
1657 1737 0.895793
6936 9150 0.119774
2185 7201 0.947038
17368 3144 0.908716
11344 9271 0.116256
11741 12305 0.894296
13301 10746 0.511257
1223 8879 0.915935
12070 8489 0.144034
6133 15938 0.69202
2718 15561 0.351897
13212 18847 0.622731
821 8471 0.368591
1972 4104 0.314185
4619 11206 0.300965
6544 14429 0.799996
5778 1910 0.294471
1423 7505 0.869726
4890 10840 0.769299
5811 19787 0.783049
1631 15715 0.614105
15663 917 0.478662
17240 2986 0.439965
14511 8576 0.880639
8377 437 0.0998244
3605 5486 0.914109
18559 4714 0.703601
8524 9310 0.949902
3380 13548 0.735332
10371 9269 0.561518
7060 6021 0.680219
7095 7051 0.442294
3824 9691 0.675163
17890 11643 0.627237
4214 14620 0.801758
19788 13156 0.896897
5926 15039 0.765647
1235 16417 0.218096
8758 9008 0.565946
12090 8386 0.605963
6957 16214 0.70845
14467 8247 0.681587
2974 6038 0.319794
3725 4314 0.675488
1209 4083 0.954369
3747 7094 0.843634
5862 6081 0.772952
7006 13902 0.742476
6717 6427 0.943647
13144 17237 0.371723
7158 15582 0.752002
9406 14365 0.546402
2197 6973 0.876904
15492 7968 0.0154754
4514 11745 0.981775
1885 3327 0.54836
16985 183 0.940269
4693 4663 0.371285
18762 7131 0.199749
9138 10047 0.160305
16523 698 0.872188
13156 2472 0.822158
5607 1849 0.741506
10431 775 0.824064
12480 8383 0.563618
1746 6441 0.148697
10156 6636 0.849782
5914 10204 0.170611
847 6531 0.520823
6188 11118 0.167253
15100 1284 0.0918955
3897 10249 0.953236
3416 1780 0.266702
5453 3647 0.145885
18783 62 0.192227
7960 12160 0.811329
7962 16944 0.116198
2268 15906 0.0476607
1824 12914 0.244703
7900 878 0.237838
17525 4513 0.891731
2010 9252 0.603264
19457 6158 0.897116
14832 7322 0.670383
14074 2471 0.375508
14771 6286 0.545151
10005 5651 0.968607
18017 9849 0.66141
5272 14946 0.606742
7449 10729 0.0164875
872 8760 0.794394
8116 8238 0.487506
9739 13213 0.790561
7006 16827 0.0269844
10134 9401 0.620622
4603 8424 0.0500056
10610 6801 0.781989
2128 17402 0.923467
19289 19268 0.149145
16193 11048 0.827704
18710 9903 0.646692
13337 8023 0.810639
11369 167 0.991498
4455 7857 0.806876
11538 7922 0.601992
606 7362 0.679596
7689 8151 0.907193
11553 6950 0.507733
1789 16945 0.34027
7725 11464 0.868811
9605 7014 0.692266
15988 19017 0.577395
6461 11066 0.913366
10793 5495 0.573593
18102 1042 0.398057
7391 4098 0.478322
4054 11786 0.302572
11564 8884 0.119453
3997 12547 0.821334
19927 16061 0.16445
12288 8051 0.965481
17496 1570 0.0733699
19777 2031 0.0327977
1561 2037 0.42273
5156 5203 0.722208
2881 535 0.91419
10316 6251 0.840446
7633 10639 0.907205
12669 11977 0.928203
4273 14736 0.871029
5659 18801 0.783767
10263 7267 0.0531294
10612 9459 0.259398
6658 8448 0.135399
2124 16080 0.711883
13901 5208 0.0186235
15973 7946 0.118533
15505 2174 0.667432
577 10265 0.708165
1297 8077 0.948298
8157 9888 0.698269
10936 9730 0.994466
3889 7797 0.14377
9900 713 0.624238
1898 12909 0.204022
1145 4207 0.726414
19029 11102 0.934301
16951 12892 0.107906
16601 3462 0.900694
563 15955 0.732222
12661 4828 0.101238
15033 404 0.403717
16931 12281 0.508771
248 10514 0.482765
7223 4234 0.719573
9740 12160 0.850378
7708 9656 0.195387
654 13820 0.715999
188 464 0.353291
9085 11154 0.421516
1028 13177 0.993483
12920 1971 0.591305
10740 18739 0.283263
17223 6878 0.795671
12493 2115 0.54836
8485 590 0.870113
19810 8764 0.803815
15171 5520 0.501892
2164 6104 0.0718373
5967 18284 0.995578
6136 2905 0.564347
985 9361 0.777429
15360 13545 0.433357
16146 18404 0.659841
19904 1667 0.0895486
441 5969 0.924093
11982 15819 0.488239
682 3226 0.756416
19178 610 0.0828744
5760 15634 0.677926
19271 8354 0.367004
18914 9516 0.85232
11138 7765 0.779794
2424 13030 0.104183
10166 5649 0.169734
16804 8716 0.289346
581 12499 0.938738
7325 12108 0.0990668
9139 15735 0.101485
4664 17180 0.423506
214 6634 0.568729
5818 9163 0.141996
16271 8808 0.00710793
16050 12004 0.125835
12187 1934 0.392202
10697 400 0.083843
6388 8126 0.247976
1099 2950 0.328266
5494 4421 0.56176
4440 10888 0.181211
17107 5556 0.972176
1987 13096 0.62234
3226 17411 0.992241
14927 4941 0.61165
6468 2072 0.797693
2430 12648 0.540745
12579 11214 0.476228
9252 12799 0.867792
6680 14000 0.331797
4534 3806 0.296482
2207 2571 0.116558
16582 734 0.480696
9366 2258 0.123816
6971 8157 0.21981
9327 8401 0.428274
8225 1178 0.986011
13338 346 0.0658099
16501 17248 0.977653
13438 6626 0.175566
17081 4078 0.842065
5308 17956 0.883877
6979 4866 0.113098
9404 10340 0.369092
11323 5691 0.490767
10299 11019 0.913442
3599 278 0.07915
12229 3094 0.326138
10561 3704 0.300637
1133 1212 0.780083
172 7773 0.104234
5599 4204 0.0161546
2246 4538 0.664754
4451 7389 0.322981
11142 11285 0.47484
12640 12714 0.626468
16053 10775 0.33178
8570 552 0.710032
6857 6683 0.767362
17192 11711 0.227817
1469 11466 0.279942
638 6298 0.438903
16962 8790 0.990795
2486 12614 0.153813
5658 4411 0.859641
15231 10036 0.660262
17945 8644 0.604545
18863 3298 0.978215
19917 6568 0.659915
10685 2961 0.790636
12637 3768 0.0704999
18446 7441 0.836675
15740 12759 0.187775
2587 901 0.407163
6804 10773 0.837919
4696 957 0.435265
2505 3978 0.801447
8996 9771 0.707451
11702 7461 0.858346
7142 6748 0.0563774
4073 6120 0.608534
6177 12017 0.467549
569 3300 0.532181
10223 13013 0.284759
16478 9876 0.817126
19566 3012 0.448695
7015 11944 0.0746092
14984 1100 0.26621
4731 14350 0.969638
12467 13975 0.482151
4590 9688 0.0835241
1890 11313 0.58476
18483 5280 0.319637
12365 15261 0.81733
1163 16640 0.0502609
19845 16247 0.463312
11852 3594 0.890998
16576 10136 0.375805
5802 3832 0.463033
1665 11190 0.698104
328 8646 0.683037
11098 12201 0.0107628
2684 17349 0.732317
15727 15392 0.398753
19802 17305 0.789293
10056 8341 0.772066
10824 18104 0.502692
17423 9482 0.984597
15413 14726 0.939346
4952 1149 0.8094
10327 6777 0.364441
4700 8442 0.128948
11221 10839 0.81631
17902 11635 0.444629
1778 6143 0.651839
7531 517 0.373503
10223 12427 0.439606
6460 19594 0.89651
4028 6096 0.372086
2065 14119 0.969917
18761 5308 0.212382
14300 4647 0.828497
19824 7515 0.90635
3546 2699 0.869567
5342 3203 0.408441
11654 2051 0.187661
6107 3041 0.0744046
2394 3513 0.478322
571 5188 0.00385936
6297 8769 0.387256
1204 10970 0.0646414
8368 4048 0.669855
9059 12254 0.344963
3817 19027 0.85718
12612 5262 0.488274
10393 589 0.351431
10346 4210 0.452567
11789 19747 0.335672
11687 17884 0.376211
3100 13545 0.886086
3670 3825 0.64408
1394 8628 0.845863
11619 19621 0.449063
19596 1160 0.803066
5954 11612 0.643859
7057 16484 0.394457
8860 16690 0.465321
516 6569 0.887613
16008 12330 0.386597
12957 9676 0.792365
11583 7157 0.255179
249 16597 0.740344
1215 8663 0.636531
14555 18678 0.176722
1611 11673 0.387843
8526 5670 0.57176
4984 10755 0.916542
16289 9146 0.575763
9468 5016 0.657965
17586 5804 0.0779976
6246 10235 0.718211
7234 17835 0.203698
9708 12506 0.471158
17507 11844 0.887618
1025 7823 0.195029
14097 224 0.695134
5620 7512 0.51691
10197 14016 0.941727
3729 17159 0.0679278
7048 533 0.441617
5831 19904 0.765399
2526 13172 0.164448
11089 10353 0.300315
6143 3151 0.83875
7018 13905 0.83999
9928 17289 0.103816
14485 19468 0.778277
10712 10637 0.523356
9174 12665 0.74891
8032 7771 0.171642
2400 3213 0.601057
9997 7127 0.970534
5236 3904 0.406227
11409 12487 0.223155
8780 19647 0.143132
8063 11102 0.861782
9123 14939 0.781215
16562 2908 0.256888
2340 13917 0.759291
11230 11199 0.64654
11780 4461 0.15439
4758 16880 0.269763
2935 14099 0.634016
17438 12644 0.657427
13547 5476 0.709288
5501 7893 0.335772
18245 11720 0.730096
7811 1936 0.52563
7170 18499 0.998136
12830 6502 0.990266
5882 11679 0.499143
14816 7105 0.573029
10523 16586 0.383
7549 3810 0.586848
14497 19266 0.346185
17759 1647 0.857005
3075 5743 0.278451
4521 11681 0.386849
207 8207 0.172459
15394 9291 0.213549
6171 17688 0.0994442
13076 19157 0.437685
5276 11645 0.533513
9555 7043 0.639219
13305 2931 0.131752
12687 15107 0.0770671
15442 11070 0.775493
4479 8641 0.857186
6448 7982 0.736216
11522 3697 0.912229
15016 1818 0.487572
7536 10077 0.309908
19513 13577 0.165344
4540 7294 0.935141
5825 2890 0.881027
12290 17270 0.0301392
5724 2131 0.574297
8672 8442 0.24792
4389 9321 0.142018
4167 7945 0.328673
6336 1842 0.758825
775 6576 0.629647
12173 10334 0.981986
19956 2455 0.0626778
9309 4446 0.881729
19899 5479 0.399933
12593 3668 0.454704
16843 1783 0.0895487
19210 5907 0.332535
4204 3708 0.0225286
1161 14816 0.965386
12437 8402 0.535333
7899 19238 0.396797
6754 5201 0.435993
427 7118 0.255681
6867 17784 0.827072
9815 10140 0.196054
5839 8764 0.806715
7775 8577 0.174547
8513 19830 0.141333
5565 14485 0.6033
13558 5574 0.925489
5098 4795 0.124508
9774 5242 0.625162
4621 10313 0.476072
12834 7930 0.326809
13303 11117 0.27387
11590 1905 0.0243069
705 15304 0.658546
748 7822 0.183823
9771 11651 0.0362755
9790 16877 0.825208
10530 3042 0.57176
11629 6082 0.488652
3369 2008 0.767825
7753 9791 0.893323
2685 12701 0.663735
15187 4901 0.0916098
3766 19133 0.308076
1101 1802 0.314778
12639 2691 0.951148
6682 11454 0.362837
2386 9064 0.36961
11802 13699 0.932715
13708 12389 0.781255
916 5812 0.365814
3642 2644 0.633004
7606 9081 0.779056
7015 14762 0.383352
9220 11146 0.492065
8480 14728 0.948167
11450 17129 0.626532
17525 6921 0.769506
2282 8882 0.0121724
8177 11125 0.374888
8534 10322 0.238064
9514 19651 0.0182609
9253 9256 0.269763
3462 3476 0.309116
4830 8253 0.551865
4141 8760 0.996056
3800 7109 0.346037
19935 1414 0.0979736
11688 5017 0.814907
5422 2103 0.747863
17960 11847 0.112264
18506 3436 0.18878
282 8499 0.579556
6932 12409 0.346246
3241 19788 0.307814
12446 14140 0.33637
14163 6133 0.96867
4109 4586 0.25234
18732 9940 0.313783
19821 3703 0.269223
6359 1566 0.331199
15653 10682 0.891523
3130 14893 0.291951
1568 10593 0.650512
2072 11502 0.495593
12802 14052 0.235199
10834 9646 0.941498
17759 63 0.123753
14857 1494 0.388105
6809 17395 0.301983
9059 19950 0.416553
14535 6577 0.77835
8716 8650 0.395475
14572 8859 0.48002
6058 2274 0.417426
13571 7985 0.312243
7743 11389 0.910467
14282 7624 0.644817
19315 976 0.460278
16724 1124 0.304806
14455 2769 0.202799
1659 2254 0.817925
16475 3060 0.771964
12140 8604 0.543201
11788 9506 0.147473
10076 12841 0.61984
2418 2280 0.418719
10248 10512 0.963796
19312 15371 0.062136
1059 5763 0.783621
2639 1480 0.537087
13321 14427 0.541446
1432 1347 0.938052
6788 7544 0.759988
19903 12671 0.89824
10393 12141 0.719956
18467 1574 0.418731
14446 7222 0.462088
1711 15080 0.781989
17317 6219 0.651812
6158 18018 0.276993
19021 7054 0.145972
13554 2743 0.361239
4894 14583 0.329875
2181 6466 0.904535
8174 5709 0.934945
6702 19075 0.986147
16261 9418 0.863367
5960 9135 0.051445
16768 7756 0.725468
10082 15632 0.339727
1774 11274 0.320473
18701 5038 0.169739
11375 19593 0.580603
4936 8081 0.104677
7007 10649 0.243713
9447 15486 0.723646
2744 12727 0.250406
70 10842 0.417491
8372 12324 0.624238
11078 6700 0.868233
13995 587 0.773077
9777 4482 0.0663949
11363 9700 0.192936
11311 12591 0.834573
7673 4648 0.653588
10954 19107 0.922705
2207 5259 0.117858
2163 15283 0.505374
11448 3533 0.519552
15068 8336 0.596425
15565 15731 0.186274
528 8317 0.517208
5735 18991 0.371788
3459 10607 0.909022
19772 589 0.124713
11439 11452 0.308477
2016 3169 0.852935
19511 6876 0.357727
11188 13705 0.01868
15198 9435 0.794473
11053 10274 0.603805
7074 1918 0.971908
3057 9636 0.716957
14249 16288 0.187145
14575 14528 0.241634
13575 16215 0.726827
8687 4870 0.592024
9316 13657 0.202259
19720 19364 0.418898
5804 6720 0.220993
4296 2234 0.237115
6961 12941 0.353191
19016 12407 0.167998
17882 408 0.152194
9574 12290 0.932054
15067 4376 0.442843
1617 45 0.608205
8333 1821 0.696093
4069 13 0.956608
13337 8084 0.929796
12775 10747 0.205821
12366 11878 0.450823
867 11282 0.778637
7555 4882 0.0876783
6941 11980 0.807179
17865 10483 0.744611
7000 4393 0.519683
8028 4285 0.316266
3601 10174 0.533357
8608 3507 0.842748
9029 11016 0.150183
17129 15513 0.370254
9741 11334 0.697088
5269 9860 0.101868
7047 6403 0.239604
7591 6882 0.407173
10603 3219 0.434136
2339 5980 0.0139462
16326 4277 0.0231339
4702 11439 0.378501
15906 7215 0.520893
14744 14120 0.199113
10198 7359 0.9789
16028 12316 0.655767
10090 2737 0.0265812
12035 1632 0.424857
8672 4982 0.107828
13962 8776 0.322919
642 4813 0.153582
19870 10821 0.490099
12821 4377 0.523861
3450 3452 0.487075
1080 9857 0.823457
7433 14472 0.0506538
9237 646 0.0757505
4284 2228 0.702084
2234 10933 0.433661
1260 10413 0.920538
2253 627 0.929708
3343 1687 0.0501246
10331 19434 0.938052
5479 17644 0.178319
649 4684 0.565886
7608 14 0.237771
9298 12216 0.3144
6518 7636 0.855827
946 7170 0.209547
1916 4182 0.589834
12207 10373 0.67479
16119 13973 0.688213
10972 5141 0.0327396
3044 6853 0.106569
4291 3517 0.534066
3209 3657 0.537774
8722 4898 0.909591
7450 9947 0.566752
7202 2915 0.280694
12723 1492 0.605701
7889 2414 0.881491
5738 4726 0.837194
4278 9168 0.430797
9792 5343 0.370788
16680 13380 0.149793
15998 3247 0.260629
17822 6803 0.91562
11430 1218 0.941768
8303 7816 0.590179
9687 16282 0.67476
165 1781 0.290141
19199 18066 0.573827
10974 1753 0.650437
14959 370 0.943112
2503 17051 0.463306
10799 2413 0.328991
1466 12570 0.597136
14733 14813 0.11637
3854 11847 0.678967
2391 12490 0.314668
9306 11476 0.581975
3356 12826 0.494864
12719 3772 0.828633
1346 3087 0.824064
3447 7059 0.697314
976 15834 0.258352
15138 11204 0.583939
7751 4013 0.628006
18277 8231 0.151295
11874 8055 0.0744046
16472 872 0.108343
7878 5143 0.852988
7844 5889 0.439034
11959 5072 0.86242
5588 14510 0.140604
14495 1371 0.443415
11726 15266 0.287823
1621 12888 0.793093
3675 4075 0.436548
7383 8016 0.317263
7800 7902 0.261184
9817 12740 0.56872
6844 16308 0.942636
2854 1652 0.168285
15598 16583 0.485259
15753 6096 0.322136
3100 1891 0.347256
4976 7855 0.668234
1136 18792 0.880352
982 2822 0.443032
6533 4044 0.965067
388 4120 0.8485
5992 13536 0.983666
19611 205 0.210538
9357 14384 0.786067
7032 4288 0.7898
4007 11760 0.210729
17956 9431 0.293566
8523 15866 0.494446
354 19672 0.143922
1110 1993 0.543266
9272 6012 0.413102
2038 1399 0.689535
3427 11501 0.264142
7627 4188 0.220879
11812 6336 0.665303
7259 7696 0.666026
4590 7683 0.848952
2467 11891 0.783073
6501 10022 0.486227
12906 18681 0.569121
15193 14541 0.898686
10527 17663 0.580106
7879 8516 0.480953
11611 15318 0.842115
9064 2279 0.338715
780 11039 0.72084
7194 6861 0.499378
1944 10474 0.92162
2526 2618 0.565946
382 9253 0.909276
3487 1461 0.579325
11693 8708 0.873263
7089 3967 0.144543
10153 16700 0.914356
16697 3348 0.866677
10467 19411 0.876462
7276 11586 0.831449
586 7202 0.215747
12192 16588 0.197038
11673 3118 0.240597
1509 3025 0.166161
5326 1126 0.121831
2843 8491 0.181439
10565 6992 0.757171
10093 9251 0.987512
12429 8679 0.0518712
17111 18387 0.718558
19454 236 0.907381
977 10981 0.0672765
11364 9605 0.512006
1004 1029 0.411543
3764 6225 0.53574
2642 7857 0.400661
10961 1201 0.2332
334 7949 0.744611
4501 3947 0.676418
16966 6228 0.3202
14784 4182 0.301394
9129 6842 0.87821
17295 19804 0.602613
16047 3009 0.49624
18993 4731 0.802568
19576 19956 0.0305164
18589 7222 0.717705
7871 12698 0.184193
5516 11653 0.823168
8420 11114 0.510758
19403 5116 0.442121
3713 13339 0.0185504
15716 7076 0.303221
15222 7530 0.759582
271 6003 0.278907
6971 16140 0.699264
4593 7459 0.3261
6390 18328 0.909253
3943 10528 0.175588
7746 10036 0.807281
1665 2879 0.294184
8680 11867 0.596703
8306 19491 0.73032
8898 11280 0.0328905
16747 8739 0.579607
14827 6271 0.85047
6977 15942 0.210707
6185 18295 0.441983
19451 6681 0.131503
3912 9602 0.382956
2386 5945 0.568878
11439 5298 0.00754981
13534 2514 0.38402
1187 5526 0.775437
8361 15789 0.217033
9408 8059 0.736773
17236 14537 0.00488792
3485 9590 0.704153
9145 19771 0.634016
18821 8719 0.704796
8974 10269 0.152974
10385 5224 0.306934
2084 7234 0.124527
7165 4449 0.879687
219 9763 0.0383472
12018 8010 0.324696
13433 5132 0.155374
15931 3079 0.117465
3755 4901 0.06083
10174 14751 0.374551
3257 6362 0.660493
5683 1462 0.684769
4733 6906 0.752577
10860 12540 0.986928
10161 19476 0.0735204
19019 8716 0.207501
17617 10676 0.633004
5951 14515 0.355118
734 17399 0.45809
11588 17269 0.45271
635 2860 0.181092
9078 11330 0.25915
12062 1291 0.396945
17261 5641 0.45943
5457 2480 0.489506
1156 12543 0.532756
15550 7597 0.0595722
1721 5721 0.807
10635 11966 0.650345
3713 2380 0.338455
12293 3522 0.520207
8930 4998 0.348133
13248 9132 0.629721
2786 2994 0.19046
17308 10643 0.0576737
2054 14297 0.960595
8227 1424 0.761879
1663 11485 0.38402
9852 8229 0.0489753
2381 13002 0.76502
6636 19628 0.138919
19428 10177 0.764065
7891 13787 0.566963
15363 19406 0.0267158
7882 8105 0.292384
10646 19112 0.958721
17103 7550 0.316292
2438 7020 0.339373
6670 10673 0.668593
5141 11237 0.200939
18526 2701 0.316428
4916 15065 0.542913
3565 16375 0.187299
12618 8348 0.572628
17269 13615 0.0204254
12348 7016 0.641674
743 12638 0.660565
16970 8461 0.172882
11653 4739 0.702475
19544 6551 0.899355
1560 4000 0.642546
18643 11942 0.153261
11827 9659 0.210925
8797 8320 0.905645
4722 12011 0.668706
14797 12872 0.351149
5742 11796 0.00310634
10534 9950 0.241444
2133 6875 0.676867
1213 9226 0.0624188
10281 8537 0.123532
16470 11923 0.975245
8241 11482 0.0378438
17685 12727 0.93667
3332 3654 0.147683
7049 1466 0.945346
6816 4465 0.953993
10653 12603 0.815711
8959 9362 0.0858705
7562 19541 0.632877
19238 13039 0.747523
4750 7963 0.176129
11666 11358 0.627637
18858 7273 0.758205
8096 10013 0.699653
5764 3681 0.86136
6853 3840 0.139964
8308 11604 0.720273
6368 8904 0.63852
7183 17135 0.604947
8160 547 0.487344
9453 6279 0.223902
17101 13227 0.649319
9696 6212 0.761013
10516 8190 0.990297
4457 8326 0.106178
1444 18635 0.239085
2028 2205 0.0898163
68 12195 0.791366
8404 2104 0.324925
1900 17592 0.0174474
5106 11182 0.485583
18112 76 0.642639
7277 18152 0.810572
16893 5121 0.977746
9302 6973 0.468498
11674 5625 0.899963
6453 9248 0.725817
9320 9353 0.212613
6953 1172 0.902383
4487 9957 0.552823
4925 6078 0.730154
17325 9061 0.630527
2097 16862 0.57538
2012 2969 0.947126
1159 1405 0.583572
385 3758 0.0991402
8657 12731 0.27598
425 10970 0.516604
10504 11616 0.0201678
7353 12721 0.312006
19672 3909 0.358902
10275 12874 0.761443
4781 10950 0.02247
8898 12657 0.573204
4328 411 0.181495
4430 15666 0.820692
1654 17922 0.247068
11396 12093 0.969778
3873 5126 0.133595
3900 2137 0.459974
472 8805 0.561205
11181 5021 0.680048
16919 3994 0.248828
5021 12492 0.625856
3997 7789 0.550857
5778 9348 0.517671
9732 18396 0.303873
9709 8013 0.573191
2901 4356 0.884207
4300 15461 0.551425
8043 3804 0.00814034
6488 7896 0.460183
6780 17262 0.289116
6873 10209 0.432995
12973 4534 0.720728
10665 10635 0.46245
3364 18076 0.0429446
13555 15863 0.547671
16254 3741 0.877804
4422 8031 0.75357
8182 2322 0.918616
9214 4406 0.464569
8329 679 0.704203
5658 4189 0.209062
9504 14446 0.197296
14396 6930 0.260019
17009 8714 0.0184348
11576 5948 0.976076
415 6900 0.103048
4672 14661 0.851895
18164 14179 0.83375
2957 7253 0.683681
13007 7298 0.353356
6180 18392 0.584943
806 13364 0.0826951
14993 8483 0.759691
9503 15488 0.722487
4754 4595 0.616954
6385 1555 0.699555
17577 12373 0.797215
12418 14669 0.852772
3607 11799 0.240193
4500 5789 0.630708
12744 15794 0.482212
4362 14190 0.239206
9870 14966 0.386223
11991 12615 0.481158
7163 3779 0.213549
6085 3572 0.412573
2597 9735 0.0950683
14370 16490 0.366614
1174 8313 0.278362
6937 8949 0.239418
2490 8812 0.232297
2274 11613 0.00291996
14454 3080 0.628296
4055 9695 0.473261
1025 14994 0.375394
1200 3847 0.309314
6061 4800 0.825134
4756 5307 0.859641
10898 4866 0.225034
231 15576 0.626306
10546 1930 0.965761
3297 4721 0.600164
9362 2669 0.746881
3565 16018 0.950213
701 10832 0.368382
5529 4182 0.0801858
4840 772 0.487379
9686 1863 0.891918
18218 8738 0.7186
9477 5524 0.83027
13203 2099 0.928793
1153 17689 0.720723
7449 8935 0.798801
5992 10464 0.547816
9731 7224 0.413375
3789 13770 0.534413
9912 6349 0.549782
60 2203 0.462094
8239 10368 0.91156
5616 11479 0.829206
8557 6010 0.11637
4748 11874 0.565417
2176 8106 0.937853
11765 19286 0.564513
8332 19993 0.397757
17498 9315 0.298504
9197 5121 0.773437
17584 12065 0.849447
18938 16425 0.894894
10332 14368 0.830851
348 5590 0.31847
15600 6314 0.237122
13842 6441 0.0166074
10452 8526 0.639353
8866 16743 0.76182
16880 10359 0.00913659
5989 3503 0.33695
3838 17832 0.477669
1890 12073 0.974447
10175 645 0.413919
11721 1804 0.291148
13825 9524 0.424725
2679 8227 0.333152
8074 13970 0.514362
17582 2293 0.099241
7359 17163 0.17731
5336 11363 0.435007
14093 10630 0.404003
12852 12559 0.701334
12422 1864 0.0779297
11904 1699 0.555416
4894 3155 0.978348
2949 17148 0.525992
16143 19 0.587833
10975 5896 0.750006
10367 15761 0.711393
243 1601 0.513357
9153 4869 0.999393
10343 3921 0.523348
5389 6408 0.0432671
17175 12632 0.439496
10935 19265 0.531969
6063 8829 0.177896
3368 14287 0.464978
9441 10917 0.177754
4815 482 0.649294
5152 7353 0.70192
6109 18224 0.320809
7354 10262 0.00532544
1414 12388 0.313531
4401 4560 0.669749
4094 4550 0.120357
10780 6274 0.95617
5608 10027 0.315886
2177 4520 0.714827
8825 10201 0.882838
10347 9070 0.875667
454 2006 0.180818
2557 19043 0.0199215
9583 8750 0.226734
4010 10074 0.314826
14040 5462 0.7399
10526 8097 0.411939
8919 12138 0.672002
13695 14176 0.26381
7073 6197 0.154408
2947 6522 0.224983
3246 10506 0.471776
2432 3019 0.280851
11955 12236 0.130371
2304 7808 0.0260195
3261 9589 0.671275
13126 16373 0.222191
141 2953 0.297291
8116 2162 0.106592
10047 11130 0.064575
5775 9449 0.82571
1282 2099 0.753352
53 3643 0.952467
17539 6716 0.299031
2577 5083 0.158825
1274 6945 0.13755
8348 1398 0.101335
10008 12390 0.398425
10798 3537 0.418898
15005 12219 0.116858
8827 10401 0.637344
806 11907 0.0301947
10582 13784 0.16116
5153 11624 0.0695872
2204 17602 0.324265
7972 1098 0.0184348
15754 2811 0.423751
3079 18497 0.00665678
11496 10103 0.227552
1657 1579 0.820546
1732 2318 0.775365
2607 3694 0.377784
14163 2274 0.415475
15947 5146 0.77475
8622 11963 0.927203
10343 7624 0.384685
10377 9343 0.13963
5036 5239 0.561111
14332 10112 0.414051
14800 9034 0.675748
1772 5786 0.194003
18222 5686 0.114337
18202 12547 0.11976
2051 9199 0.206122
5749 5310 0.914658
16728 4089 0.615518
12065 2179 0.0848257
601 19765 0.122441
15469 4383 0.41719
8066 1855 0.577783
8011 4801 0.370073
3121 3413 0.785367
19518 5028 0.421221
55 11850 0.404753
7662 7869 0.00296981
6407 14321 0.698627
8289 238 0.105468
12065 7610 0.207271
2389 9879 0.246185
7763 419 0.216488
10339 8959 0.416761
8958 17615 0.409135
4981 4723 0.0162552
4797 2139 0.972662
3300 15244 0.094109
5411 16367 0.871492
6957 1196 0.481304
3075 9851 0.312277
15308 13160 0.772809
12641 3971 0.0815921
2984 15116 0.660434
10284 15590 0.0920512
9691 16104 0.4271
2229 15043 0.0580749
8354 10986 0.678919
5843 7193 0.431362
17168 3172 0.937887
7680 10877 0.886761
6195 11707 0.174282
17377 11423 0.602883
6304 7482 0.858054
1274 12045 0.886497
4961 5205 0.915825
4366 19755 0.556055
16230 8333 0.956373
6928 14343 0.360518
18291 19998 0.853459
1118 1006 0.751234
366 10832 0.359498
1003 16077 0.588341
12132 7363 0.892968
18093 2756 0.472827
11784 11174 0.0409465
11662 8303 0.321691
4306 17488 0.221309
19663 14608 0.46417
13114 8642 0.294397
13424 15382 0.333462
5275 1479 0.854055
4269 10873 0.38794
7931 5590 0.0182609
9997 11636 0.491587
11371 7171 0.993515
1007 14415 0.18534
14411 2106 0.711244
8102 4775 0.779637
14070 16658 0.610679
6103 6970 0.93051
913 15683 0.108687
1271 7188 0.149976
3372 2474 0.720066
6171 9528 0.465513
3935 2443 0.789423
6297 2832 0.301934
9425 8143 0.856651
15422 9874 0.367183
15511 14888 0.542958
11701 10477 0.418051
15571 3995 0.354213
3343 20 0.400646
5849 4344 0.824538
14881 11063 0.695557
13289 6719 0.447587
3762 18670 0.163552
12439 3230 0.898781
4883 5054 0.626937
628 5754 0.0351542
12567 19473 0.352734
3093 8859 0.238926
4009 6586 0.672734
4769 5770 0.686917
15497 5288 0.0993836
7806 1237 0.566963
18228 1094 0.154432
5677 28 0.166769
12898 11641 0.634314
3220 15949 0.666804
16491 15489 0.806054
9941 3303 0.528865
4046 4692 0.107688
18701 3272 0.736185
19100 5116 0.782404
8578 6872 0.728389
3859 16937 0.0353904
8939 8687 0.143792
19416 4366 0.219186
15388 13329 0.900344
9688 328 0.0452044
13489 2389 0.06619
14433 11720 0.933256
7316 6264 0.836604
9509 12118 0.654193
4941 7129 0.600217
12563 4834 0.842102
13438 8504 0.343496
5313 1067 0.25805
15311 81 0.621702
8567 8735 0.237122
7328 6317 0.93973
3330 5562 0.511326
13 16237 0.512616
9221 16647 0.674899
12049 10191 0.588949
10042 15604 0.796901
17048 9397 0.990979
7924 10262 0.497322
12048 19937 0.832315
5166 19575 0.149204
12935 19293 0.882306
5202 7674 0.190438
11522 10856 0.0995432
2377 8743 0.117236
17404 14399 0.598666
13214 18701 0.224663
9483 1098 0.785179
8538 12846 0.863367
7664 8609 0.388042
6095 11130 0.299537
12993 1651 0.562533
439 5763 0.220768
9312 17316 0.133742
2624 5283 0.148073
9750 8424 0.0502609
4745 10858 0.774882
14713 15575 0.0713508
223 17412 0.544667
7562 577 0.839345
8561 11980 0.611376
16907 16551 0.391275
8917 224 0.823955
7086 3252 0.650472
11509 2356 0.730546
13478 3092 0.872497
4002 13336 0.95603
1186 10224 0.02818
5733 12647 0.265817
4467 17710 0.188101
5368 15493 0.087933
16516 13998 0.520807
16948 19590 0.588466
5948 6126 0.988853
10061 2925 0.44346
19014 10204 0.80609
17262 1243 0.247532
10329 3391 0.921306
10135 18083 0.951438
11177 1201 0.969983
5960 5841 0.57075
1322 7927 0.645372
516 141 0.0991853
11557 3375 0.997868
7611 8870 0.393574
4967 9401 0.265997
5125 10738 0.816591
5559 1749 0.435227
14069 7534 0.525173
6823 6141 0.0428435
2975 4621 0.924105
11363 5585 0.914732
6599 1210 0.704404
18149 6898 0.884581
11902 1345 0.242436
8348 4433 0.617484
2071 14353 0.205834
19660 16924 0.682509
16184 11894 0.356783
3955 9054 0.107034
8732 16350 0.0428808
2747 8442 0.258838
11714 4909 0.361038
9410 5027 0.722545
14683 5811 0.369435
16950 3614 0.352218
3892 11432 0.641305
2935 269 0.338411
11173 17046 0.965874
5719 7467 0.0249143
3173 7706 0.345535
8171 5383 0.710092
6369 8071 0.442294
2963 11244 0.129965
14842 19164 0.662658
15418 6951 0.388104
16813 1576 0.111891
12241 12053 0.620858
2362 17967 0.382422
19555 8501 0.470853
12696 10519 0.0276737
13400 5762 0.644126
1536 1614 0.615882
9026 17 0.222017
679 11729 0.670308
4865 7327 0.637135
4854 18763 0.507075
6369 3676 0.249036
2041 12063 0.870933
9734 16406 0.0999028
10339 10255 0.934894
6340 1464 0.209116
11654 15652 0.160172
1818 7497 0.221332
14592 16354 0.112147
5183 9865 0.82571
5235 2426 0.0519446
6225 6257 0.803123
12727 8712 0.772952
747 13082 0.529392
1221 2006 0.459839
9822 5677 0.511369
2622 9752 0.323648
11557 19452 0.40097
3550 1520 0.735617
14084 7454 0.985266
3900 13022 0.739376
140 5931 0.829485
9418 17570 0.854075
657 8954 0.0502928
16306 14348 0.633977
7447 19656 0.858576
9334 12740 0.541818
9371 2513 0.0523805
9206 3911 0.786679
7209 7093 0.789209
6002 8079 0.925575
527 995 0.569299
1122 18312 0.547637
5634 8987 0.289085
4790 12383 0.173867
3905 6073 0.414458
1936 8817 0.639789
9727 6580 0.601476
12347 6406 0.607714
19094 10332 0.553606
18661 18467 0.116462
121 9151 0.47319
3470 6189 0.440477
10938 4086 0.739144
2349 972 0.694092
11001 17865 0.978931
9384 10143 0.320177
1791 9776 0.293758
19165 10321 0.832769
4459 8178 0.257865
4081 17802 0.109082
17173 10436 0.138136
4076 8492 0.692562
4358 15079 0.213708
8375 15307 0.0554111
7548 13755 0.902335
12339 3554 0.302486
11715 2327 0.778378
2742 3061 0.46917
11440 4864 0.866304
3218 8358 0.344889
12680 10683 0.867975
16948 7908 0.741983
2900 16055 0.414038
5421 15473 0.598233
9912 5127 0.12427
7034 11062 0.606629
4739 19984 0.340236
1964 2683 0.0269248
8627 371 0.465643
2894 7779 0.625391
3702 10970 0.0622736
12010 11624 0.244468
4550 19064 0.604783
313 15007 0.911813
5568 2495 0.924952
11929 15112 0.594337
6414 313 0.806685
18369 654 0.0132924
2029 8758 0.596909
1300 4599 0.798896
5050 15631 0.471126
6757 16257 0.18819
19328 19278 0.842397
3146 159 0.757822
11765 18866 0.426192
8669 16812 0.867442
5488 266 0.0789716
8060 11107 0.420445
1950 9405 0.757896
4937 6677 0.996845
1883 4049 0.664046
2966 1896 0.988576
19435 5810 0.261105
11540 10396 0.799818
5147 7905 0.207505
18345 4410 0.796764
2198 18104 0.140276
19903 12823 0.128179
10456 1797 0.0665559
17796 19312 0.452072
9294 3862 0.108656
283 9272 0.380962
6259 19875 0.658841
6614 10234 0.151879
2678 17314 0.926981
17231 2467 0.367749
10641 6559 0.0132404
10301 12349 0.170924
3802 1564 0.619347
11240 11766 0.12635
11621 6955 0.713719
18553 11667 0.795221
10411 1866 0.181307
9540 3659 0.820977
6573 14777 0.225883
6999 10106 0.536767
16676 9276 0.765265
6099 11502 0.323375
15615 8266 0.0720182
927 6972 0.652773
6110 11057 0.0723358
7989 1569 0.023375
1555 16969 0.314231
743 6708 0.67629
14642 2034 0.839424
1217 8255 0.771964
8759 14956 0.927873
8514 7641 0.128438
13640 9928 0.623765
17067 1688 0.33922
12621 19482 0.369191
15760 16076 0.74448
2705 889 0.704186
8393 18478 0.643163
12083 325 0.234666
1404 8353 0.495416
15898 5162 0.120666
14654 7188 0.110939
10967 14009 0.493845
6994 7210 0.609467
12477 2212 0.773323
5059 9110 0.88692
8675 3030 0.417936
3692 14417 0.513674
3220 7653 0.802925
16165 1074 0.346341
3575 19974 0.955888
5030 3878 0.516955
10139 4913 0.0351549
5328 1325 0.884922
8402 19188 0.66422
16238 11322 0.829654
6571 3928 0.627757
9972 2402 0.513593
11090 7018 0.27605
17758 4492 0.739796
4313 6607 0.0748064
9134 11776 0.797533
4028 5040 0.908837
4447 2333 0.241722
19095 5717 0.652011
17086 10710 0.00990899
1162 12304 0.558986
2550 188 0.695131
14030 3804 0.177282
9782 10462 0.387524
4060 5122 0.666765
8758 2732 0.310871
12439 5251 0.796525
13077 990 0.237771
63 7641 0.993346
7534 8260 0.0150504
13415 15748 0.682786
6295 7633 0.337498
11203 8572 0.618136
2261 111 0.4956
3312 11944 0.966286
12553 8882 0.136548
4219 1924 0.395956
4874 1196 0.108013
523 367 0.0442771
9498 1382 0.443274
6669 17553 0.207753
10911 264 0.802309
1927 11825 0.938635
3146 16185 0.959859
14126 8020 0.260395
15937 8324 0.857137
17102 5811 0.0276737
15091 15594 0.780929
16951 4926 0.53299
13657 19408 0.215419
16694 19839 0.611806
913 11919 0.322221
6724 11429 0.995789
7097 8724 0.388428
8094 6991 0.416156
8925 240 0.528134
9856 13008 0.19104
3236 8538 0.210346
7964 888 0.551552
3218 1433 0.584388
6488 396 0.431528
16903 19817 0.762109
1823 2178 0.237254
5029 11980 0.172782
19848 12128 0.7217
18152 13661 0.494266
19703 4036 0.121543
15376 9584 0.313383
19088 4997 0.0185216
4061 2423 0.708839
17917 5723 0.728549
8945 12367 0.921419
15985 6977 0.473053
5718 642 0.399813
7641 11031 0.86344
9535 7642 0.566591
768 202 0.431354
18703 7600 0.146416
8548 18518 0.0832414
2820 17545 0.725905
4134 13977 0.550589
2818 4312 0.848388
1656 18091 0.760402
294 8906 0.458321
2697 4214 0.175292
15900 3256 0.956287
11710 9013 0.38188
6844 3016 0.0553532
6548 1733 0.221316
10437 18544 0.93998
18914 9679 0.954798
15733 4068 0.0204254
19320 3934 0.746404
9140 9931 0.659965
9768 1278 0.0558117
1233 3157 0.235596
11980 4428 0.195556
16660 5775 0.704153
7051 9153 0.99273
5642 5564 0.288174
5703 5731 0.990154
874 7800 0.108195
9136 8185 0.467993
10225 6708 0.8551
16142 18289 0.281457
10757 11639 0.101165
11314 12048 0.722208
15428 6624 0.945716
9838 8403 0.709916
262 8115 0.0567277
4679 7571 0.585712
7587 7758 0.777343
10042 2016 0.0546713
7788 19365 0.894296
1683 7886 0.688618
18225 10106 0.725571
18398 2638 0.315886
14478 1145 0.266702
17737 12861 0.55957
19343 2574 0.688306
11178 11314 0.958089
7648 1920 0.0714864
6566 3074 0.00292809
2327 1994 0.437112
9036 5005 0.867502
1856 5387 0.990062
3378 6934 0.502689
7098 1464 0.865975
8949 5133 0.440504
5146 12505 0.071206
7761 5906 0.297291
6411 13522 0.334419
10722 13407 0.0745469
5626 12275 0.924422
5550 2056 0.175407
7850 15721 0.296302
19606 11629 0.453674
7344 4811 0.101485
17819 19199 0.0610581
8920 9921 0.497182
16753 213 0.766726
17815 10974 0.596185
5172 12019 0.152717
10679 3014 0.88289
5222 16500 0.0812575
4082 5651 0.416471
12111 12287 0.767538
5921 4365 0.388158
6823 10083 0.386499
19304 423 0.489969
1686 8978 0.498704
8008 8002 0.746074
2683 10415 0.68211
2877 9550 0.129344
18683 18947 0.737652
8564 7224 0.694179
11893 5095 0.368988
14961 825 0.519333
8869 5486 0.790984
301 17974 0.273852
10862 14281 0.648128
1568 19145 0.471478
14872 4326 0.761729
12658 247 0.487789
11543 2988 0.120936
1092 3589 0.796486
1541 2589 0.95641
6081 3994 0.223773
5001 12909 0.88225
11663 630 0.556432
12027 841 0.616536
14182 5740 0.222288
12588 2070 0.988576
2281 12157 0.580015
11160 3302 0.508567
2003 18456 0.246932
6298 3567 0.427859
17314 1778 0.859351
7873 6786 0.163152
2196 9092 0.139892
17146 7113 0.26387
10458 8792 0.999404
15208 14970 0.862205
2454 19064 0.425838
10472 6308 0.553073
1016 12454 0.27353
19678 5245 0.848179
18476 7862 0.185632
13073 2123 0.94271
10217 10992 0.294541
6157 460 0.730534
7715 10068 0.513353
10552 5728 0.276218
3561 17544 0.609123
6687 5535 0.985
3627 10316 0.848121
11882 17685 0.239463
16931 1199 0.843293
8459 1186 0.519075
14922 2418 0.567824
18489 9824 0.932686
5255 1907 0.142142
7736 11062 0.0501246
5518 7264 0.658196
19297 15106 0.679786
6547 6859 0.984981
323 591 0.0788033
13953 17766 0.0710591
1841 11196 0.795527
40 49 0.515894
13959 2517 0.272225
3989 2411 0.0914793
5924 17298 0.965727
16979 13928 0.0528821
8561 9712 0.0474207
10725 2520 0.633993
14058 11682 0.790692
18695 2742 0.408336
4932 1762 0.188776
10214 5739 0.826857
10249 5912 0.939294
10323 18048 0.657965
1184 13499 0.212606
2008 12633 0.0583389
2553 1114 0.533417
12221 3497 0.794921
1865 10934 0.658597
5266 10848 0.955542
10224 567 0.959464
11190 11282 0.218607
13419 5444 0.425031
6451 10520 0.389642
4053 4227 0.149169
443 9602 0.566142
3355 100 0.321584
11409 4773 0.567591
2952 7730 0.793602
19380 5490 0.887947
5138 10054 0.469727
18870 5687 0.417583
6054 9789 0.0936456
5521 2398 0.0363789
203 11349 0.32809
7658 1972 0.587857
17054 9625 0.649869
7879 19681 0.475321
19774 5267 0.329065
10422 9994 0.748549
401 18747 0.938679
3005 12532 0.0269248
3086 6673 0.912323
3341 11466 0.696436
13090 9085 0.99002
7472 6740 0.134428
11392 3623 0.704051
15657 18020 0.82767
11379 7878 0.704853
7692 10826 0.139713
637 11828 0.696931
8613 18951 0.0581661
10316 10520 0.145556
6889 13145 0.448215
10683 16055 0.253198
2805 1470 0.62052
12210 15286 0.487789
2177 11314 0.399107
7946 16741 0.312627
18261 9164 0.89422
5197 14578 0.602975
13462 18589 0.356004
11835 15515 0.620214
19071 7051 0.078929
10009 3728 0.812563
7705 2595 0.237913
628 9955 0.599332
7403 8544 0.546003
2028 12525 0.0533608
11167 5725 0.355561
16039 2787 0.814686
4795 18520 0.586362
12544 5232 0.403505
1632 11560 0.639756
573 5183 0.478669
1715 307 0.587192
16394 19427 0.674514
4050 1454 0.0316963
8237 3627 0.314515
10866 3820 0.654193
1517 10975 0.592483
7340 8806 0.539045
6404 19124 0.456679
4152 2165 0.924283
4945 11816 0.138224
19540 9488 0.778389
15163 12994 0.947
6989 2569 0.461867
4160 12317 0.92716
15213 2523 0.394319
7090 13788 0.653018
1037 4171 0.748041
10829 10027 0.413432
2363 12329 0.973128
19477 4574 0.842804
8123 15077 0.893553
7055 19525 0.329065
17592 3371 0.39715
3227 8925 0.804401
7674 1695 0.954093
9669 8478 0.237838
8088 14878 0.205623
503 11612 0.898669
10482 3474 0.255034
401 200 0.896817
8299 9052 0.56879
11377 10815 0.0461891
3805 15336 0.66864
5508 3334 0.1899
8628 11643 0.822137
7571 17343 0.330427
10775 13437 0.360424
3239 9886 0.414583
14920 12453 0.0667442
9538 962 0.493367
14438 4293 0.206177
7784 8065 0.237961
8577 12526 0.280118
5459 4139 0.362186
10824 406 0.149511
7357 8608 0.526269
11224 8164 0.750325
9821 13382 0.957077
404 16595 0.976896
6285 10153 0.470608
18291 14367 0.275725
3998 10689 0.0342971
11388 1187 0.281438
5614 515 0.629132
16572 8916 0.93667
12112 9699 0.277574
18782 16280 0.501276
10656 16489 0.781036
5702 14711 0.0665559
19215 18192 0.636305
8799 11769 0.561596
10315 15966 0.610429
1248 2012 0.649495
633 7951 0.436942
14785 16878 0.726618
1810 8561 0.47852
9471 2076 0.780518
11042 4973 0.441093
1880 3108 0.638929
8357 17376 0.751031
13725 5219 0.142905
9657 6672 0.735266
3294 12724 0.228339
7216 9486 0.146582
11728 11093 0.931214
5425 9423 0.673631
17012 4145 0.970997
7302 13887 0.429187
383 4883 0.595829
13987 8120 0.914658
5675 6074 0.516128
18249 4249 0.724044
3506 154 0.648577
7653 13379 0.93307
4515 18967 0.0657027
9607 10268 0.307699
18504 8643 0.123662
8286 11645 0.990355
2683 8957 0.214619
5423 3559 0.671359
5844 14640 0.67814
12332 7173 0.137483
1909 9641 0.931358
3504 12838 0.259857
3760 2567 0.35997
8508 12052 0.315848
10881 3550 0.993219
714 4413 0.975378
1237 5151 0.561335
902 16205 0.421221
3587 12045 0.417426
12368 3759 0.938052
3887 5855 0.271288
14487 10664 0.0234899
8689 8310 0.0576167
14807 6902 0.909794
16274 10529 0.426966
19226 11152 0.298946
9604 5881 0.0747356
743 9380 0.730696
10771 3394 0.23877
3359 5039 0.513952
19761 129 0.510661
11512 14182 0.763099
12163 365 0.831829
10486 16050 0.98439
6630 32 0.896881
14001 6424 0.578621
9501 14587 0.0715715
2459 11477 0.591764
7972 5503 0.185606
8542 2559 0.471758
18222 11132 0.436713
607 16930 0.269763
1294 1974 0.389563
18180 3520 0.68545
17167 9983 0.235795
878 11456 0.992799
10014 10529 0.738425
18883 11080 0.106307
9493 7950 0.768147
3192 6711 0.00547587
1103 44 0.989312
17283 15843 0.325436
9171 8488 0.18539
1294 741 0.50724
3969 5146 0.0780946
10946 12129 0.0391942
8881 5213 0.440377
10618 8658 0.788327
18770 15078 0.233267
17896 11498 0.767108
15894 5284 0.832003
7705 3771 0.299096
16861 689 0.60629
16801 19556 0.746648
1189 7305 0.516821
19086 13008 0.923112
8196 6650 0.59707
7492 1120 0.777015
19989 14472 0.639261
10299 19207 0.369595
11035 8821 0.618974
10974 14255 0.492669
13550 6794 0.471631
11661 8457 0.423057
13466 1495 0.210351
16771 3646 0.725095
3563 16294 0.698869
6181 440 0.00296981
18775 3832 0.381088
2141 7280 0.14795
5655 7868 0.333002
5236 3067 0.733582
13221 11538 0.175639
7216 8049 0.622731
7214 10353 0.261257
16403 8858 0.0551394
15463 3238 0.334915
8344 1192 0.664814
19761 110 0.328134
235 16974 0.185221
1357 6446 0.406393
3835 279 0.950294
11665 11252 0.200242
8520 6768 0.713317
15188 11251 0.799176
4163 12914 0.551681
1490 16478 0.0330724
2643 3113 0.922259
19981 14607 0.795457
6467 10553 0.676889
6134 14546 0.785119
18418 9896 0.175639
4387 4295 0.723421
4544 12305 0.437946
16820 9485 0.37611
2094 8445 0.696491
12 14004 0.85183
4031 8444 0.165683
12722 10840 0.549321
6827 217 0.365814
4649 1529 0.0832859
8883 9229 0.833936
1391 19230 0.192422
1298 1284 0.437326
17341 18474 0.583022
19375 2236 0.873266
8234 15003 0.166453
3918 2277 0.517212
108 7108 0.122741
9505 17034 0.598233
9692 312 0.43809
11407 9561 0.854552
10553 2896 0.694999
4097 11293 0.481198
14220 2901 0.171829
7095 7292 0.623853
7898 6514 0.842748
7158 7671 0.0380515
11194 351 0.534413
1896 8546 0.310466
15329 18593 0.0615122
12452 5476 0.294591
3936 2809 0.396336
4820 15243 0.164666
14448 17109 0.712285
6762 8881 0.428452
11796 7645 0.377865
13235 9591 0.0696798
14200 15717 0.293102
4727 14754 0.702874
6790 19241 0.509765
10073 8430 0.13963
5368 12354 0.817572
89 18797 0.678987
3219 1954 0.234391
11143 13366 0.0688842
9572 5917 0.587187
8636 626 0.702911
12773 15186 0.155908
6133 5773 0.336826
10114 11618 0.103953
4030 13517 0.990205
3268 18593 0.600663
615 4799 0.0944608
13221 12389 0.94475
8893 5081 0.553784
10084 15235 0.00958426
9172 15748 0.844722
7371 5423 0.43424
8240 4824 0.321572
5592 12009 0.825609
16394 16096 0.0692614
3291 7945 0.171685
9944 17361 0.586523
16046 3312 0.11533
11174 7981 0.110957
14178 11264 0.753175
511 187 0.360828
3412 10378 0.658706
496 15480 0.135418
63 15961 0.504158
10347 2907 0.664038
644 14738 0.639447
7475 11806 0.424539
3374 873 0.390336
3830 13800 0.273889
11726 16079 0.830937
9568 18563 0.27598
6992 4743 0.986575
15999 1318 0.47231
12392 8395 0.886677
6444 1796 0.858653
5693 6213 0.424012
16806 11440 0.744188
6224 12452 0.0599546
3556 9885 0.801199
4440 7205 0.720685
7707 4588 0.400502
14425 19098 0.415842
13655 3878 0.510661
3400 3007 0.842783
11405 2796 0.504227
12214 8443 0.2585
18621 19464 0.876891
3423 1970 0.18735
13191 11693 0.588466
15592 7416 0.712333
8201 18457 0.520958
6030 685 0.591891
2251 19062 0.776935
11124 19129 0.325558
14132 5419 0.170786
533 9587 0.467371
3916 10898 0.185866
14115 17653 0.449063
18792 9953 0.0798323
5799 16845 0.846067
5945 13839 0.669116
7335 4038 0.408178
6346 6710 0.282428
590 17882 0.478066
12005 6941 0.745248
1204 3657 0.512034
1675 3638 0.580873
7953 7762 0.974645
2211 8228 0.300752
10269 8890 0.286501
16392 18618 0.921736
9031 9700 0.993556
5764 16207 0.595499
1699 3137 0.681132
10666 3093 0.453647
2519 3362 0.969846
5847 5682 0.205343
10300 3439 0.804488
3070 5729 0.472827
2803 7153 0.740459
299 6894 0.213172
4010 4374 0.485259
15675 9286 0.00958426
8527 12771 0.466834
18625 8606 0.70548
8214 5317 0.740564
909 4027 0.791102
9702 12562 0.693746
8569 9180 0.966265
2682 9765 0.218763
17012 17553 0.183874
5752 11292 0.434563
15698 16721 0.240376
9828 426 0.959846
8023 5272 0.0223837
6905 19407 0.150695
936 8555 0.60645
6631 7551 0.128321
3724 11635 0.57538
13730 12685 0.220673
14805 6694 0.360485
14650 9822 0.648362
4660 326 0.196884
12382 7965 0.564115
14932 19638 0.479556
19125 10888 0.621532
17034 6635 0.993984
2591 4687 0.276642
5970 11369 0.696156
3109 11574 0.438953
9084 7236 0.277688
5229 8565 0.148775
12771 4394 0.00789731
3252 11318 0.125339
6809 7896 0.442101
8137 4356 0.679456
16428 1147 0.205401
7755 5507 0.821005
11931 13800 0.0523066
3103 17562 0.59812
4614 3874 0.388208
10821 5966 0.561991
8521 17388 0.966623
14953 10087 0.250006
4272 12505 0.243096
2184 12067 0.726345
96 16505 0.341348
19260 6404 0.62272
8379 2045 0.841625
11500 17276 0.208817
8333 12958 0.400257
1169 10900 0.237789
7697 684 0.164443
9536 14265 0.155329
8300 3362 0.792792
13123 1211 0.605228
8172 7649 0.71284
14472 17470 0.828272
17689 10675 0.140394
11971 6115 0.0985597
7231 1757 0.490796
9473 7617 0.306694
5919 3376 0.321811
4937 9874 0.956874
9383 4376 0.592514
5388 48 0.915435
10125 19282 0.871049
367 11708 0.455691
3408 6717 0.377356
2782 3854 0.176616
276 11188 0.2802
10496 8795 0.420445
9076 10844 0.218365
3972 18089 0.440788
9671 3321 0.700337
16708 4683 0.253231
11739 11093 0.64402
9886 4389 0.829442
13844 2202 0.462848
10631 18083 0.641674
11782 2333 0.601914
4707 7098 0.572408
5321 10772 0.317655
9488 2898 0.359925
14887 5707 0.922763
4806 4766 0.51417
11379 12573 0.829475
5423 14464 0.4191
2253 6488 0.259739
4589 5463 0.897613
7297 17074 0.136153
10116 5893 0.0614525
4974 4639 0.10633
18776 10614 0.659943
2109 17272 0.695134
12421 4986 0.524219
15297 300 0.796179
269 2821 0.547941
3890 12321 0.048192
12092 2509 0.65476
56 4828 0.134749
18908 5199 0.715063
3367 6181 0.822046
3949 13255 0.511189
2116 12630 0.756416
2500 6262 0.696322
11182 2153 0.120678
16931 6423 0.204592
13808 12925 0.173063
11287 8858 0.757959
14479 12725 0.463262
19902 6417 0.763887
12294 15313 0.485059
3517 3399 0.283258
19042 5561 0.996144
302 258 0.380973
18098 2616 0.35364
4185 11706 0.797634
8628 13624 0.733015
11497 10161 0.288537
4974 11664 0.359687
5809 333 0.844487
8423 317 0.794287
10750 7700 0.86923
19924 11968 0.816935
1662 11747 0.0562434
3334 319 0.17498
13200 18060 0.218607
2592 18113 0.980827
14859 2084 0.454929
3676 12515 0.490671
9013 7920 0.125687
3992 14256 0.603352
7743 12628 0.445709
4699 4799 0.201518
7557 7368 0.335683
10233 5208 0.234446
17691 4949 0.297469
4970 8409 0.00987483
11451 9610 0.503155
3191 19776 0.167846
3516 18037 0.73032
8438 7145 0.819556
3067 12377 0.176642
10967 1125 0.0524884
4423 11087 0.962974
5217 5259 0.562533
15869 8717 0.794715
9291 17257 0.273456
9381 18286 0.17417
9689 5631 0.861867
10947 680 0.378243
8750 2063 0.216435
5387 8016 0.284573
17955 3795 0.0770526
30 13782 0.893903
8999 1448 0.700095
1451 14220 0.585134
9405 1161 0.499557
7394 13169 0.0106634
10976 7341 0.480953
12125 1616 0.843656
19982 1315 0.531318
10272 414 0.673468
17143 10113 0.452911
6505 1912 0.715797
7392 228 0.0238288
2173 1877 0.600402
2302 3988 0.377396
19931 11408 0.965243
5315 6429 0.761009
11942 12316 0.675706
8699 9021 0.527417
2804 8152 0.926758
6915 11305 0.345752
11475 15182 0.0968092
8655 7930 0.0752323
8458 1792 0.555163
9398 9632 0.356275
7744 2323 0.409655
1999 18391 0.975459
11376 755 0.874922
9283 11077 0.519683
2917 7907 0.106737
4958 10676 0.943689
497 5204 0.712189
4279 5365 0.967107
11222 788 0.0156293
9671 7880 0.843004
4300 7934 0.848635
15199 9009 0.0326317
7114 4396 0.471126
7490 19513 0.589035
17844 17619 0.138896
3457 3800 0.4991
10978 8047 0.719332
11451 3078 0.132407
18259 5400 0.348851
3993 7286 0.637708
5183 13339 0.72705
7658 489 0.906647
12177 3981 0.887525
7770 7756 0.875908
9240 16612 0.563952
8408 4490 0.786067
11559 3007 0.859834
15171 6756 0.874488
11182 10666 0.218096
13218 18403 0.630222
277 10730 0.843402
16899 7950 0.734502
18281 1640 0.367477
3883 15616 0.204073
10294 7619 0.752347
7464 15220 0.510628
15935 10257 0.777474
10947 7072 0.709283
6661 2097 0.355773
4267 2736 0.868453
14374 3253 0.773077
5377 7841 0.0583364
2992 13578 0.155046
12876 10998 0.5611
6033 18325 0.802323
8463 15057 0.959874
1293 5365 0.99157
16284 6598 0.0226653
4469 4871 0.793955
14239 4812 0.990263
3546 18200 0.723229
7711 9407 0.766569
8585 10047 0.411534
3682 17203 0.823256
19106 14246 0.0176806
7345 19968 0.360737
2726 14727 0.306945
2448 10723 0.520807
12016 9998 0.94202
4020 10164 0.897727
15651 16986 0.76231
6063 17003 0.744665
3478 10834 0.95134
5853 7839 0.161026
483 3786 0.0260058
707 5930 0.158081
9126 11927 0.567304
6837 4116 0.620622
10684 10845 0.59077
15735 13571 0.929812
3780 5015 0.723012
14506 13379 0.831783
12147 17518 0.662597
9719 7671 0.417968
9516 7091 0.771646
6043 2930 0.855456
5614 1576 0.788504
17577 13308 0.0224524
3188 4596 0.623566
13679 11868 0.710868
9563 4523 0.613989
6833 8704 0.553023
18627 2134 0.712471
78 12354 0.577466
14760 11782 0.640525
1153 13352 0.202545
8552 13955 0.512889
7947 15689 0.439085
3232 16419 0.496151
11066 7351 0.468538
17410 1924 0.292165
10096 13716 0.809524
10207 9649 0.0487659
5812 8521 0.159445
7433 13005 0.639024
3326 2624 0.190858
9045 1346 0.956982
18845 3188 0.530026
16581 3083 0.395611
14145 7758 0.590538
3030 1545 0.906526
15043 714 0.0458125
9941 18039 0.364802
18791 8022 0.960595
2742 3862 0.768616
8951 8842 0.871395
10186 314 0.486771
846 9614 0.0141151
9522 11904 0.893903
2265 18037 0.969476
14173 13368 0.407486
10020 5591 0.491029
19937 270 0.255672
6349 13119 0.302984
8674 10095 0.634028
4289 11927 0.780327
5294 1717 0.368382
7814 7978 0.977472
6860 10695 0.624142
1570 13896 0.43366
3808 11833 0.235603
14715 6760 0.996854
12390 7003 0.847013
7278 339 0.653603
8790 12445 0.0797497
5222 15359 0.111428
17148 3104 0.110776
7367 3065 0.546893
1024 14486 0.387986
10772 3867 0.390218
4601 6613 0.0190706
5506 10131 0.39613
14190 12890 0.759539
14606 12262 0.925425
14710 2804 0.614081
6195 6000 0.213224
13760 15523 0.620617
7885 18317 0.144835
4930 15851 0.969353
12283 12657 0.397349
740 17405 0.0566482
10237 5639 0.611536
16010 4771 0.609464
4581 17139 0.675807
3803 16140 0.563593
18706 497 0.0812343
9091 12552 0.163678
12023 2727 0.788927
6413 19313 0.561113
2969 3517 0.596319
4956 8965 0.883612
17982 5479 0.49
12198 13619 0.707992
6684 5167 0.805442
234 9966 0.78745
9160 9803 0.749322
1610 19015 0.18451
6694 17632 0.493966
7070 19258 0.64593
18665 19790 0.431497
18603 697 0.175671
15559 15733 0.347549
4424 1065 0.721524
4740 1213 0.666523
8233 19819 0.214475
9499 7646 0.521345
9190 5712 0.770838
1721 10767 0.387986
3762 5463 0.425416
1342 15620 0.799445
1770 7900 0.487441
11864 11377 0.12746
9539 14514 0.13755
5256 7114 0.645388
7466 11234 0.679402
3717 10285 0.259969
11348 16613 0.0217988
12200 955 0.983304
7354 4375 0.00292809
6619 8810 0.690303
3506 9311 0.817461
13443 11335 0.568798
8825 3398 0.197504
61 4660 0.118841
8102 15631 0.54327
10420 1135 0.984056
5488 8315 0.770118
6841 1828 0.625029
14367 7429 0.551953
2709 17557 0.974168
8776 12793 0.744957
13661 7738 0.0924066
6622 19136 0.494559
6251 5900 0.491448
4712 1041 0.500968
9672 9595 0.917421
3377 12880 0.459716
9919 713 0.954618
11703 4179 0.926049
17257 11253 0.335226
17066 10279 0.450916
356 15380 0.181192
19505 6848 0.254908
13686 1940 0.757959
7987 11341 0.794473
6755 12649 0.999424
3850 1572 0.313783
13322 3031 0.975885
162 14891 0.171026
15088 1254 0.409243
15373 2496 0.310357
5240 2806 0.641783
18859 5218 0.641511
11164 9070 0.509908
9883 1461 0.480147
14427 19021 0.776898
2121 4954 0.662936
2316 2051 0.551638
11175 1663 0.205154
11905 16320 0.168579
4 4516 0.38094
6130 4817 0.524254
14673 10659 0.600217
15672 10581 0.949901
5873 2947 0.19534
14476 578 0.375508
4033 5896 0.86868
13486 8245 0.0724456
4924 9761 0.0183119
9581 12930 0.250195
2588 18681 0.48094
8300 15455 0.259865
2126 19854 0.702267
16604 15822 0.257255
15141 10213 0.794578
13289 5182 0.972006
6504 7441 0.206424
9821 7357 0.929027
17595 7073 0.462424
6333 4989 0.587042
5198 8727 0.34208
7604 9668 0.337873
17761 6392 0.457584
1373 19273 0.927671
11066 11514 0.913692
1387 1452 0.263443
3835 9711 0.0343241
2207 10234 0.154748
16694 6870 0.321942
5306 13192 0.18707
8783 10145 0.207267
14763 7209 0.51707
1910 6360 0.898038
15171 10069 0.968563
13594 15710 0.583643
5793 10355 0.798246
9970 90 0.645381
13477 10637 0.428128
12311 11689 0.960321
13755 1833 0.64402
8905 13331 0.447129
11967 2973 0.985732
10270 9261 0.412003
11325 16138 0.589757
8075 15914 0.11812
6186 695 0.548883
5483 320 0.536366
14604 10268 0.848276
12131 935 0.751566
3102 1681 0.530741
9281 17333 0.606742
1958 8254 0.752884
19455 12898 0.342932
18893 6640 0.85632
4197 4676 0.760753
17428 6617 0.906275
12498 12487 0.90864
19912 8892 0.0869292
12718 3921 0.91707
11902 8094 0.67502
18177 1982 0.940853
19924 11274 0.497544
3586 2626 0.859147
12587 11193 0.644101
9468 8140 0.212516
2333 12344 0.463794
5717 10059 0.908591
5958 5877 0.72746
10921 18826 0.0861855
4678 9989 0.855418
13271 8266 0.967713
8792 14070 0.643407
6990 14879 0.204503
18060 1366 0.40388
1975 9635 0.797634
8432 18427 0.743443
17631 11625 0.526461
19316 13294 0.790787
1900 3359 0.384758
1825 9767 0.210331
8088 662 0.959232
3863 17927 0.8932
11597 14079 0.763314
6182 4955 0.540849
6093 2047 0.624363
8718 18792 0.0498921
11699 13866 0.117551
5370 11947 0.528606
14292 15075 0.670682
10122 17922 0.122593
3489 17624 0.672329
1655 4081 0.995841
12200 10962 0.272675
19065 6246 0.650924
11252 8091 0.0987936
5028 12628 0.637977
8880 16006 0.877112
7732 1672 0.994596
19006 18116 0.714495
6850 4523 0.126105
5763 11634 0.804245
11458 7701 0.402263
11452 3944 0.482471
8701 4606 0.585195
17099 14553 0.385266
3453 6522 0.0614525
4320 10577 0.850364
8367 11434 0.989945
14608 14184 0.291794
1290 6053 0.943417
11385 15605 0.378616
5020 353 0.72477
5432 8737 0.0707354
10476 9036 0.0768902
11803 4405 0.242639
14866 2381 0.566905
11440 15566 0.164442
5934 8094 0.0824466
378 5927 0.164028
3727 234 0.436926
12564 7738 0.679497
7049 3472 0.320113
12101 1372 0.578762
1737 1535 0.617502
5931 2424 0.912164
3162 4122 0.623853
15716 1487 0.0510587
12540 2576 0.970447
3428 3918 0.886918
1435 9708 0.443681
10494 11 0.0191748
12039 9243 0.344638
19959 10293 0.720273
14789 8858 0.808353
14239 13123 0.184987
3814 11729 0.0736672
7792 4264 0.702814
3952 11968 0.310687
14384 7598 0.189683
1479 11586 0.319326
19651 11969 0.059964
4623 2869 0.362214
4204 7143 0.606199
15321 13859 0.284451
13525 7323 0.858207
3095 1705 0.64716
2983 10855 0.973939
11170 14127 0.240376
1254 11875 0.841158
16747 3046 0.571441
3206 657 0.702393
5449 1369 0.455222
18417 10124 0.354807
7312 15464 0.496823
4286 2852 0.486933
6486 7983 0.641496
11194 15525 0.547516
1556 6036 0.546473
5229 3335 0.761566
18285 17880 0.988624
12545 3967 0.913116
550 2529 0.795271
8451 11064 0.840389
7860 1811 0.578
8085 8659 0.898642
12266 8344 0.558433
4482 11463 0.130373
8143 17775 0.281176
5738 2586 0.215263
19143 5421 0.412761
2874 11519 0.367944
5586 300 0.638751
2544 2876 0.938738
8862 13657 0.366222
9388 18533 0.282453
16311 10323 0.717714
2173 14414 0.613017
6033 19489 0.732618
1796 9857 0.250032
18810 317 0.126259
2469 4367 0.0511086
11570 14457 0.3029
12489 7307 0.255755
797 259 0.0143347
11318 10867 0.71386
7082 10253 0.890878
8889 17789 0.537026
2101 3518 0.188154
6626 7527 0.513266
10678 494 0.909591
9832 5486 0.417926
7271 11816 0.241648
2532 6522 0.122355
11614 295 0.979262
2826 14951 0.646917
18344 382 0.154382
4461 6696 0.619561
4968 10546 0.0993957
2404 1831 0.766882
456 5836 0.205912
10197 6006 0.527659
17084 17416 0.221995
948 11488 0.265285
7105 2228 0.1461
10140 8323 0.815748
11486 16428 0.340276
9263 4627 0.974661
3207 2000 0.166578
769 5736 0.346832
4804 4758 0.762693
9561 36 0.0591877
14889 1542 0.638193
6846 10428 0.211077
16835 12087 0.126409
3980 13813 0.922462
6828 3116 0.106962
10096 17393 0.224596
5215 4512 0.772267
6729 15508 0.761341
9309 5385 0.45619
5476 14361 0.961568
3696 18770 0.760052
4049 9331 0.328895
9818 2766 0.191254
1277 3745 0.942396
276 194 0.573222
18298 12094 0.728569
15515 1790 0.418731
12753 7637 0.668996
10906 754 0.485583
3107 5762 0.260935
563 4143 0.0525887
8666 11160 0.76231
7687 7713 0.217934
10439 9494 0.63442
18903 9255 0.964319
5943 11651 0.292014
6905 7737 0.651045
16943 11398 0.670626
8397 3727 0.728779
16655 16780 0.57538
14473 17982 0.278058
2197 2726 0.36258
10615 8123 0.685011
10988 12323 0.969323
8985 15011 0.839125
11241 5695 0.0963012
9629 7634 0.428366
2104 13331 0.293607
14391 12645 0.23594
9664 1770 0.251854
2016 3104 0.381126
9889 3767 0.977807
9439 11430 0.57946
949 4708 0.175075
3925 2914 0.917089
2596 4732 0.786944
13402 6692 0.967527
10747 10544 0.548529
4495 564 0.418119
19691 8815 0.36437
17892 4034 0.0861811
12459 19500 0.524975
18277 15263 0.779872
11280 2182 0.45683
10268 16918 0.0916817
14563 19319 0.0480874
2063 14722 0.332584
7528 7917 0.273762
302 646 0.208526
10024 13430 0.82133
4852 12076 0.599782
3625 16390 0.413755
3783 11053 0.546833
2723 7119 0.0929269
505 6853 0.355977
3469 13126 0.465623
10335 11197 0.168986
7864 10376 0.24915
1616 5892 0.906526
6716 11242 0.719623
9581 3582 0.325952
8798 16768 0.585581
17203 926 0.27747
7258 8728 0.616476
18568 6482 0.0122684
7548 1457 0.165284
6495 9904 0.6457
2610 19790 0.904956
8433 16404 0.408219
10991 3238 0.162731
8198 6749 0.961013
19346 1518 0.67413
4650 11732 0.300619
16876 5465 0.564652
11458 7119 0.327692
1029 2209 0.740894
9710 16564 0.127954
2719 7779 0.613618
8456 8820 0.319743
3396 9098 0.759753
17795 2695 0.293272
9590 1987 0.117236
12573 638 0.272347
11170 11489 0.661925
5325 9886 0.22779
1481 16753 0.197465
10868 2141 0.801166
7367 5031 0.577155
12790 8275 0.448862
10225 664 0.495906
9838 11644 0.787513
17272 2655 0.241048
10589 19095 0.86197
11706 6286 0.64948
7285 14200 0.140439
5452 6971 0.97944
19386 9078 0.884754
1499 8094 0.152717
8174 17531 0.269978
8150 19504 0.975187
17022 10754 0.620409
7547 5476 0.308242
18104 16783 0.487346
11982 4455 0.735541
1135 11536 0.638282
5564 1079 0.53574
13351 1545 0.696735
2236 8905 0.52031
13952 11120 0.606742
5466 5375 0.533357
8363 1783 0.510356
14239 14967 0.704772
4299 490 0.732312
15519 6350 0.253734
7150 5876 0.407382
6130 9964 0.204503
18099 11469 0.129261
2414 5739 0.45271
2282 13869 0.582085
4685 3634 0.150867
6537 6151 0.883367
10855 17372 0.795468
9945 6721 0.419036
19967 1160 0.302769
1383 18570 0.69937
2021 12170 0.280942
12133 12761 0.743548
4912 13270 0.418064
12736 11299 0.205373
7795 11391 0.27537
1905 1301 0.104234
5271 1625 0.605152
4640 1953 0.340233
7101 7891 0.0353453
6444 203 0.766263
10457 111 0.172907
10134 8725 0.848952
13332 3008 0.609306
10553 7299 0.605923
9115 17087 0.882716
3318 11545 0.00861752
1092 13949 0.393283
12760 8756 0.0974779
9009 10485 0.121698
1875 8027 0.00582467
14873 18223 0.630204
5110 11767 0.319197
9698 9588 0.145904
19794 11901 0.930396
12069 13206 0.127246
10624 10894 0.448286
9404 4384 0.45943
4558 12712 0.893395
12172 8798 0.776324
19074 10250 0.148416
1366 13222 0.710913
17029 14669 0.419278
7307 6299 0.999693
9101 11350 0.577895
4672 9241 0.561991
1113 4253 0.532756
7459 325 0.460922
2427 2708 0.360353
8819 834 0.98483
2628 6963 0.383096
14287 12767 0.118841
16705 3394 0.787959
5425 2317 0.0799783
11272 13178 0.250649
3617 12390 0.140681
7036 1932 0.146291
3849 19196 0.454168
18809 6100 0.0393399
16070 13697 0.424748
1463 15593 0.649274
5957 16927 0.322221
6399 11938 0.380446
11493 10869 0.35079
3570 5026 0.71496
12661 12403 0.187299
7249 11555 0.896491
5009 17852 0.701214
12941 838 0.260549
11281 3983 0.0715715
3647 19772 0.650741
2624 3324 0.0141288
2546 1988 0.251699
19817 1198 0.182462
16675 4357 0.00283546
815 8256 0.205992
12351 9695 0.410282
772 5110 0.309153
9063 8661 0.897551
15557 17038 0.0183711
9500 7458 0.606265
6375 11318 0.658254
803 9132 0.605318
3055 2441 0.0272156
5183 14705 0.15659
17887 4079 0.339727
6921 5654 0.245631
7964 7635 0.287353
6707 3896 0.0635395
11982 1723 0.083843
9298 8340 0.205154
598 12647 0.258469
1775 17638 0.745576
13488 550 0.361358
2525 9019 0.332751
11260 10864 0.412684
12542 6272 0.381606
2231 12240 0.245763
4263 8556 0.627473
15404 4364 0.283258
3438 13111 0.619771
5817 10617 0.982904
3167 4248 0.506721
4562 11130 0.583839
19588 2472 0.75205
6863 15126 0.832273
7138 1764 0.055155
19354 1762 0.423408
623 9347 0.0151878
715 18914 0.55616
10034 5825 0.212613
10333 193 0.903307
3940 7091 0.805786
8178 16332 0.0862708
4064 1051 0.0391656
14390 18821 0.394698
11823 4887 0.483888
17241 9070 0.5316
10054 5731 0.607459
2801 8707 0.949443
615 15211 0.352681
19352 9555 0.364496
2620 9666 0.383374
10149 16614 0.351897
11706 9867 0.640031
209 1511 0.809589
3863 3062 0.262629
12018 3513 0.531496
9322 7460 0.0220228
1839 670 0.816719
1799 7282 0.211011
918 12364 0.0547276
8502 3132 0.927169
6795 2204 0.68254
17460 12168 0.404716
1262 12733 0.638304
10564 13138 0.741315
16442 8512 0.561095
12051 7560 0.424638
19268 9706 0.851152
10692 10363 0.773997
16219 12057 0.897116
8279 7270 0.836604
4404 7620 0.203689
2551 14874 0.56178
10789 8012 0.621285
16668 7705 0.895844
6925 5448 0.327936
14919 12508 0.106853
18622 13328 0.843036
5481 8544 0.807483
12588 3387 0.965834
16761 367 0.408814
8061 5488 0.683782
9912 5821 0.158176
12494 297 0.0151873
4103 11820 0.0995432
2202 11283 0.570711
1719 15540 0.342426
13713 19041 0.00290157
978 13343 0.502828
2338 11491 0.741826
409 2941 0.605068
1638 9554 0.999525
2042 9837 0.334621
13477 16670 0.948402
586 3105 0.642055
5827 6440 0.602883
7867 12450 0.35702
351 3642 0.443762
5234 606 0.4356
1884 15052 0.162124
14798 335 0.674654
6107 13349 0.21613
7998 10586 0.848831
3225 13711 0.972075
904 10708 0.542018
14164 19297 0.183867
3002 3826 0.252246
17747 12739 0.431271
12731 11464 0.732577
12730 380 0.539627
6512 8546 0.688773
8432 4139 0.130536
9149 18430 0.624457
3404 3933 0.027363
17901 17616 0.167591
13419 8746 0.527626
8915 12200 0.34374
2580 914 0.773606
12404 5920 0.0570491
6588 8907 0.0401331
8454 8812 0.417359
1416 7818 0.579079
7710 2935 0.968477
5426 1302 0.669626
3620 6020 0.234052
1505 3296 0.753106
3743 3726 0.881383
3205 4251 0.967543
18003 2830 0.188154
11231 18343 0.963428
15875 401 0.128488
11195 9596 0.741178
104 9948 0.772793
11168 10625 0.00558726
16800 11226 0.372407
9533 6786 0.269519
12029 3394 0.740524
8484 6061 0.110256
11453 958 0.0862484
16082 11215 0.310317
665 7738 0.337505
1791 17608 0.519407
12133 9963 0.959597
2491 7155 0.210835
5838 8830 0.577587
10577 11411 0.965243
18708 3769 0.541335
4957 14867 0.636374
371 10824 0.736506
10198 3667 0.761834
8861 11193 0.838362
7194 1553 0.349141
58 9371 0.418358
4785 10673 0.746462
14498 3587 0.919475
7052 10555 0.511594
5331 6084 0.387028
17420 8801 0.220768
4090 17205 0.316292
19671 10546 0.840139
4832 18926 0.497272
5923 3526 0.527089
13210 4146 0.746019
9032 8956 0.314711
18750 3353 0.476243
8194 3197 0.310924
11718 11826 0.229505
2937 17305 0.199081
164 6315 0.351484
6541 5309 0.0093146
1607 4444 0.622768
4023 19532 0.687555
4575 18042 0.356529
2101 19372 0.246831
8217 603 0.14631
18956 14685 0.312243
5171 10102 0.360335
14555 16395 0.118932
11890 15364 0.896354
8979 5078 0.346065
13610 681 0.436517
19698 4963 0.619561
17110 12263 0.538161
3953 19187 0.220234
3578 3740 0.857377
16364 10315 0.294886
12870 12190 0.100713
917 4127 0.64308
4712 11358 0.423228
17872 3981 0.462437
3793 11536 0.872647
1402 1097 0.0769337
16958 1898 0.36782
1382 6049 0.855827
4372 15685 0.54543
5967 10105 0.260635
9342 2727 0.969844
2063 1980 0.232091
16928 4470 0.173063
1521 403 0.72644
17619 1479 0.751525
14204 6748 0.949661
7158 19103 0.0305221
1401 1465 0.599332
13185 963 0.625076
45 6973 0.739162
617 5473 0.574987
10672 18970 0.495018
465 19697 0.94593
7947 7340 0.328895
9030 5225 0.966324
12200 19571 0.342339
10322 4312 0.148429
15650 10280 0.73101
12591 12594 0.788596
18919 6003 0.314618
11211 11239 0.786142
3321 13836 0.209903
1678 10952 0.958311
17238 14803 0.201931
328 18672 0.556101
2345 8966 0.973444
10347 4264 0.732317
4170 5332 0.220183
1427 1831 0.0637315
7087 2871 0.410899
15951 19086 0.973128
7153 3634 0.773105
12042 13036 0.982968
13939 18115 0.604431
11994 5045 0.958703
18675 11903 0.745356
4706 17685 0.851292
1797 3200 0.505358
7704 12488 0.00779343
8077 1420 0.720365
9270 14309 0.00744116
3255 13138 0.355264
18727 12878 0.241122
5805 8587 0.250599
2519 1699 0.572526
17723 9506 0.603893
3109 875 0.96925
960 4286 0.933533
15629 9981 0.854055
15548 65 0.261325
18080 14857 0.382887
4114 8387 0.754782
1285 12699 0.632709
7071 3659 0.57401
4952 8477 0.809165
9069 10899 0.486052
11614 757 0.637554
12465 18621 0.602172
11609 4055 0.935363
4539 2386 0.934211
6986 12547 0.749704
8498 9282 0.93627
1345 7850 0.354851
2259 581 0.720066
3294 9338 0.357899
17262 1062 0.00143133
6222 6970 0.692025
8108 5161 0.0673916
15346 12323 0.65476
15484 1503 0.715246
5156 17167 0.572927
11827 12905 0.71758
4977 1 0.0416567
10073 9256 0.757639
19298 10716 0.431736
12576 4905 0.183932
19161 885 0.550811
8275 3306 0.0479063
8595 14241 0.413745
14203 12762 0.871856
5597 3489 0.640683
16107 7532 0.672268
3677 3585 0.155046
3245 18098 0.960568
16115 8197 0.133444
16237 3490 0.0746426
5505 2576 0.612056
6497 16547 0.273133
5053 16995 0.127554
2687 3412 0.0424523
5099 14146 0.965896
14172 3900 0.346347
10658 16022 0.312147
365 14762 0.339309
15985 1439 0.96683
7416 3680 0.0174608
2400 7476 0.0447939
15654 9985 0.905424
18030 19670 0.335825
8760 3766 0.630159
15215 8458 0.354605
16428 1029 0.154203
8208 11313 0.260935
14878 8868 0.900034
19413 10883 0.0576866
4989 10525 0.975617
10033 5066 0.505258
15017 3852 0.806507
19258 5197 0.183996
19934 10619 0.96888
17471 12468 0.63392
10563 8758 0.713719
11767 15254 0.0251493
6073 9246 0.695749
3309 10333 0.191357
3457 14802 0.248661
6199 16233 0.438104
12648 18185 0.578672
3774 18801 0.263179
6689 3642 0.00162936
6818 4941 0.478427
5548 14842 0.613374
14780 7264 0.246125
4560 9134 0.816223
82 8725 0.265376
4591 8828 0.203975
11990 712 0.573191
9549 11607 0.280667
18965 13064 0.146105
8166 14170 0.895413
4594 9349 0.582551
3943 11557 0.789541
14261 12429 0.866741
1886 11018 0.312103
11456 11368 0.34374
11863 10408 0.00423679
15384 14544 0.659013
18549 4927 0.485
9482 13041 0.916175
3752 6277 0.0678463
17083 7150 0.0542376
14572 12137 0.506752
12103 15107 0.77835
13812 4984 0.889993
11927 474 0.985533
190 10487 0.722736
9470 5904 0.848001
5604 6971 0.941498
10069 12375 0.206574
4875 953 0.886088
9271 17328 0.851238
2319 4942 0.943451
58 19 0.24515
7089 8221 0.940495
4592 15494 0.613487
1671 6835 0.871728
16592 9162 0.483072
9693 19254 0.973736
3740 16977 0.840559
18618 6351 0.451903
11026 3286 0.86312
19684 8014 0.177483
19091 3241 0.778807
18627 1304 0.678592
18410 19062 0.220055
8923 3805 0.32809
7079 982 0.344634
13703 6056 0.327642
12537 10341 0.110563
3232 141 0.806872
11752 2035 0.986196
7275 6746 0.913603
12245 17540 0.952799
13757 1881 0.48551
3611 5736 0.0940823
5026 1702 0.122862
12425 6744 0.454702
7619 289 0.344638
13722 5849 0.244661
4464 290 0.751525
2744 2212 0.640694
10861 10501 0.171829
14598 1694 0.575718
11831 12831 0.371678
3050 5181 0.968324
18825 15058 0.939077
14875 13270 0.0210118
11627 10235 0.637448
16033 7444 0.163805
10062 6944 0.671415
1163 9202 0.727744
3791 18945 0.258409
6118 8047 0.328809
14436 14655 0.573891
1445 4283 0.324917
17281 18818 0.171868
4601 10549 0.380003
9100 7995 0.181117
11968 14850 0.0845101
19114 15361 0.0993957
6331 18751 0.0802268
5434 17271 0.0620018
7439 1680 0.984338
2465 17165 0.663964
5363 148 0.582145
11846 4172 0.167998
2236 7443 0.519156
9945 7874 0.0447118
4569 12637 0.466929
8012 16505 0.0470544
14600 16420 0.435624
201 2705 0.463467
16878 19690 0.777792
11782 2156 0.937908
8226 3059 0.0913718
7705 6113 0.098262
19632 6257 0.700609
11757 12802 0.0562434
8975 4768 0.945139
14108 6116 0.121221
9049 16365 0.981788
1505 1446 0.99873
6890 7422 0.208719
1137 1253 0.845643
4536 6455 0.717714
7214 14427 0.914605
15244 5434 0.198736
6762 2344 0.963786
15293 3948 0.529256
5821 1434 0.91707
6889 14860 0.973472
10121 7299 0.167213
2589 8839 0.542958
18111 1764 0.518174
801 6225 0.750345
4726 12417 0.493359
9313 10963 0.780009
11216 10895 0.173496
16909 17800 0.575805
7491 12253 0.145492
18221 18162 0.589256
11958 6912 0.821322
2096 247 0.817732
19396 8947 0.85832
12179 1587 0.399046
10258 2859 0.745506
5213 6484 0.227077
8989 8671 0.217259
1593 632 0.905165
3607 7428 0.863669
2278 9889 0.533811
10854 6509 0.611433
11573 3399 0.680185
18049 10952 0.772347
5248 1493 0.307393
4745 1668 0.189916
10275 3742 0.191342
11414 11475 0.587061
1550 7236 0.967107
14200 15014 0.0150978
3944 3004 0.664556
16576 6377 0.70595
11772 11633 0.738203
2441 3436 0.999854
18171 5492 0.859468
9405 7031 0.978068
7301 10245 0.492158
9937 7578 0.0585952
5588 2313 0.164759
7932 18083 0.691413
1320 12458 0.738938
9906 8091 0.603231
11080 14047 0.0952243
11855 3894 0.564696
12023 15654 0.341595
12141 8417 0.743443
7164 9525 0.583948
18229 1155 0.82682
10667 1250 0.383
6455 9141 0.952974
2087 1891 0.0901495
11971 6737 0.480887
11173 6610 0.735541
95 562 0.692025
4803 10948 0.849574
16536 19633 0.79617
3154 8099 0.89803
6650 9376 0.215263
1563 5412 0.0926811
5173 18587 0.34804
395 7277 0.396641
15139 2874 0.182019
6858 7943 0.427277
13485 18865 0.347242
5100 1088 0.460922
5368 14184 0.95652
8424 9926 0.145184
12669 6737 0.867666
2027 571 0.595496
7948 10321 0.746648
12346 18439 0.372052
348 8489 0.997993
8116 6203 0.300153
17854 2119 0.886212
7034 180 0.658947
15678 19603 0.752407
11434 1314 0.293276
4785 3885 0.998813
16254 6904 0.336063
8486 12122 0.379931
10588 5126 0.573543
15921 9460 0.887904
455 3408 0.518203
6394 15579 0.584829
4010 9672 0.692767
5644 3628 0.607635
5620 8840 0.834086
9414 15182 0.673748
10195 8453 0.474911
13883 3179 0.0343241
2845 11889 0.826657
5765 10892 0.992454
17222 10708 0.658546
8880 899 0.0794855
2004 12052 0.806558
5885 338 0.745163
2441 5619 0.932248
6528 7328 0.831696
18067 17400 0.868943
11355 7394 0.403535
12238 11940 0.397591
2711 9495 0.760811
11326 7733 0.959242
7024 9347 0.826428
4312 1868 0.538628
14823 9900 0.726303
4010 3845 0.860368
3798 2621 0.51217
2130 9534 0.0588971
8036 6868 0.916175
4667 5355 0.258911
4782 11395 0.340146
4252 3337 0.764778
18009 12401 0.659155
10170 10721 0.588826
900 17996 0.132987
9175 2327 0.732449
1855 14794 0.754786
6524 12147 0.730297
6252 14330 0.84274
5764 12635 0.255219
15478 8822 0.869567
5815 5883 0.640997
6369 6808 0.65476
8906 8315 0.38438
12014 9978 0.105584
4687 8811 0.83359
4619 5293 0.531854
6710 5251 0.341004
16538 17593 0.202931
14183 3974 0.75884
6655 17501 0.402663
16989 132 0.903255
1618 6006 0.752154
19350 1884 0.538161
13510 17187 0.632566
7057 18757 0.0693647
18317 779 0.844687
17846 16812 0.86242
4387 6057 0.548297
2175 16569 0.408565
11698 2499 0.41173
4623 5199 0.791078
5201 18097 0.743597
10899 9644 0.667449
14022 3746 0.302736
13050 12942 0.713317
7917 6069 0.0144581
5670 3736 0.664822
12527 18037 0.864337
17750 3179 0.82285
16017 13850 0.43197
1163 1671 0.707374
12191 6732 0.656099
2982 13257 0.07443
7139 6015 0.524809
2509 8657 0.0776872
17423 16442 0.185235
371 10192 0.717656
17687 4235 0.895254
6901 15300 0.549174
16229 10623 0.507556
3393 13981 0.0670807
11077 8575 0.0569428
7786 19209 0.345999
10299 19889 0.461055
7132 4252 0.901071
3111 9978 0.459787
2425 8034 0.160007
10426 8239 0.324273
7485 13879 0.230838
7371 3813 0.183448
6678 7080 0.0801858
15951 8823 0.238957
6801 4976 0.625471
8461 19194 0.409328
9416 8650 0.737904
8801 47 0.90903
3110 12559 0.557572
310 4506 0.803613
4060 201 0.971661
5343 1427 0.0263813
5661 4338 0.524835
10597 2145 0.912323
4658 4741 0.571175
14203 978 0.301289
472 10116 0.123283
9292 5688 0.54415
19479 5269 0.208817
9892 10158 0.672978
5154 15736 0.538976
8556 4306 0.513149
2389 9411 0.62506
2081 6692 0.360564
14603 3584 0.640997
16124 8707 0.986346
321 3655 0.479546
1852 9467 0.671359
17325 12051 0.800043
227 17303 0.138517
8953 4688 0.471765
16810 6049 0.553148
7249 15525 0.885881
3268 2320 0.465403
4826 13288 0.114587
1685 13738 0.146428
7416 5921 0.424975
1992 3182 0.843892
5327 7707 0.995488
6725 2156 0.410761
6135 6441 0.659336
6570 9807 0.147057
5295 216 0.668872
11193 3387 0.0106634
11927 12593 0.869211
8154 7485 0.969456
7200 10277 0.760925
10687 726 0.790838
66 10272 0.609963
9209 11736 0.01416
18096 10697 0.495803
17583 12263 0.960254
628 6288 0.480604
3409 11437 0.182408
9700 9108 0.597704
179 12768 0.578478
1480 2540 0.267381
3383 3341 0.766619
6858 17179 0.546402
8009 6147 0.849643
5396 1666 0.362819
18709 5630 0.834686
19316 4127 0.970325
19236 2930 0.88739
2591 2556 0.658145
3696 10365 0.0115918
11508 4198 0.695097
16296 12481 0.415391
41 7974 0.868943
11033 11765 0.186662
2400 12651 0.989568
5569 15201 0.389197
4721 16169 0.688352
12190 10224 0.380798
12621 286 0.094885
12226 2258 0.392865
646 12961 0.415475
9889 3140 0.257408
9454 9288 0.696086
7856 17294 0.129717
12285 2125 0.346018
8356 8674 0.702179
2781 4980 0.946002
11631 38 0.546402
19935 9946 0.751396
15858 10118 0.535963
3722 9246 0.070167
18393 7587 0.136744
13058 13693 0.672178
13992 6178 0.182824
11867 1697 0.970534
73 15438 0.33068
8596 3424 0.286923
8712 17827 0.782356
18639 9814 0.414826
5337 19941 0.205188
3738 9245 0.883743
8102 16060 0.192191
12791 14176 0.324137
4197 8334 0.79955
9779 8255 0.708824
12668 470 0.796978
9487 8584 0.898622
6089 11396 0.442633
16792 5458 0.3681
3108 13711 0.853452
17130 3130 0.846455
6184 805 0.639565
11671 9987 0.373283
6094 17588 0.839299
6007 2780 0.145492
12728 12164 0.546312
8892 2405 0.0887361
15153 4552 0.42906
11907 8790 0.299287
12312 432 0.365307
13278 9948 0.97042
14427 1082 0.0405618
7665 18400 0.568213
7923 9913 0.0260312
3801 4860 0.682956
308 107 0.986942
4159 11273 0.135648
4132 168 0.490162
9956 19884 0.681057
2241 11486 0.611271
1623 19710 0.25009
1392 11548 0.219867
10673 12962 0.123195
10802 16557 0.44848
2518 13753 0.353086
7496 5605 0.759913
5182 6825 0.141806
1276 6423 0.849447
17603 16253 0.160888
17210 12736 0.732522
4024 9147 0.229475
724 19977 0.19632
18530 8150 0.388925
674 15706 0.116623
3377 8993 0.757811
19151 10220 0.421658
6798 19165 0.423882
4978 9442 0.932965
11729 7145 0.554556
8529 3867 0.47876
6257 8757 0.250803
13375 11520 0.779181
18937 4081 0.199209
4427 18525 0.0603724
19663 6982 0.256451
12524 19132 0.565474
12419 3371 0.349978
6246 4143 0.82238
636 12591 0.85586
7015 11561 0.533532
10797 5217 0.142407
10182 15849 0.854237
8370 4647 0.763847
17253 13986 0.202932
529 12883 0.843402
18219 2901 0.0948754
11042 19466 0.0579757
8970 6562 0.303811
3425 2048 0.71758
16364 12637 0.457169
15317 12393 0.847107
3439 10921 0.261138
14077 10997 0.815669
1805 4930 0.298374
4901 11568 0.0550831
11732 13916 0.242783
18611 5014 0.94177
2877 14493 0.00317491
14773 10072 0.985276
1603 8330 0.871492
393 8740 0.720728
5420 3330 0.508105
8072 16019 0.57365
9261 9048 0.348348
6822 8 0.596759
4480 3520 0.925575
315 6360 0.592483
6674 6465 0.642784
2915 15836 0.328606
4687 4912 0.38698
383 15313 0.980488
11548 2608 0.0504488
6057 1753 0.174032
8702 79 0.747299
19373 12452 0.731558
7650 1128 0.952891
19544 9043 0.0252207
6563 11108 0.587945
8922 8641 0.0159234
12354 14002 0.501963
6114 12017 0.84047
18185 15289 0.0214849
331 8937 0.589246
3684 14976 0.0604387
13705 15485 0.441385
15687 8170 0.484933
17795 12532 0.820177
2420 11356 0.756225
18154 18597 0.283517
13711 19124 0.85384
1964 8667 0.000977269
5932 2906 0.350633
16170 9846 0.747522
1017 1100 0.705326
12695 11270 0.39417
10292 6422 0.54836
7426 2398 0.746756
925 16025 0.599572
3734 1606 0.759889
1127 10840 0.18451
9000 4741 0.0501994
8072 10988 0.649687
9682 5795 0.545608
15692 3113 0.376495
6685 7641 0.211466
10840 1535 0.50504
10916 1213 0.423399
10104 14289 0.0103474
10865 110 0.526629
16166 17362 0.177736
11046 145 0.0231549
18056 7573 0.893816
14930 1560 0.435486
7159 4067 0.87203
2686 18662 0.511386
1894 204 0.223921
10946 18850 0.327995
7646 3702 0.346067
8704 3232 0.825842
7070 16590 0.416575
1654 9377 0.27537
5289 3635 0.865018
13876 916 0.0933819
7421 732 0.864206
19653 2668 0.0465438
7973 7909 0.858137
19715 606 0.285333
9163 4799 0.665478
18709 8918 0.193307
9782 8290 0.0639408
8104 5025 0.295893
13208 10850 0.818931
6392 17841 0.0718373
10088 12636 0.291178
11898 7837 0.431787
10467 5621 0.88888
9589 3865 0.803043
13023 17542 0.486052
9436 9051 0.259702
7894 10833 0.676872
11770 3267 0.721342
6320 8996 0.716976
6105 14046 0.28074
12672 14403 0.260355
18926 17385 0.726942
10342 2014 0.85832
6135 7923 0.962473
7085 4497 0.186541
19763 1453 0.792743
10721 7076 0.99158
867 1120 0.500968
1609 11989 0.819759
2735 8804 0.889992
7112 1465 0.0177471
16899 6982 0.427835
17331 8936 0.550923
17985 13477 0.524109
285 14340 0.345922
7502 7451 0.789103
4884 4151 0.296852
7382 8383 0.839257
7258 2311 0.546056
7902 5871 0.0439645
13396 7827 0.524326
3342 16713 0.749185
8893 12565 0.691196
3492 1659 0.472696
4447 4892 0.81201
10808 3788 0.584794
7844 11268 0.235082
8131 16093 0.155263
4840 12579 0.41961
1734 15297 0.55282
2422 11581 0.346233
5032 3050 0.485291
2125 5054 0.832273
6800 1248 0.74471
15879 17702 0.756116
19790 7212 0.636035
12314 12690 0.182667
5196 9509 0.801199
9940 16937 0.930396
7341 8634 0.761729
13624 9315 0.432117
6114 2361 0.57819
5264 130 0.763887
3454 48 0.175577
7493 15879 0.6909
15669 5308 0.582575
5595 6473 0.318827
7175 8197 0.302962
10501 8647 0.372206
1802 12072 0.43837
8148 15820 0.40055
44 3241 0.160853
7478 2856 0.800084
4314 2431 0.215011
9247 9942 0.971515
1489 4383 0.246376
11977 9194 0.825205
13002 3843 0.730588
4997 1669 0.357435
7241 522 0.436548
11300 5012 0.334679
4754 3026 0.180721
1706 12351 0.663634
4553 10136 0.945672
4253 15976 0.559327
12763 12673 0.37067
16137 4919 0.292384
1353 4689 0.998981
4181 6370 0.0315868
207 11513 0.896713
8040 16311 0.0553351
2531 9634 0.94475
14743 12210 0.928416
8753 17036 0.648416
3522 19207 0.56605
13037 17432 0.664678
7343 6531 0.993062
1686 6023 0.551996
4897 6122 0.415519
10466 10606 0.909107
4429 5113 0.754983
5994 10898 0.209547
14964 10598 0.0663915
9291 6596 0.181664
7695 10338 0.0128978
1319 16422 0.6286
4014 4930 0.121352
4119 1023 0.0258773
203 2724 0.00996652
3117 3557 0.719574
18175 7407 0.574252
10065 18329 0.782034
12247 16871 0.891589
11373 13027 0.258491
1768 12320 0.634849
5896 56 0.744611
15777 11156 0.72827
2255 1519 0.421311
5537 11327 0.453769
11614 4743 0.865237
277 2966 0.0589205
15902 4940 0.475521
4713 9635 0.0991402
8769 1400 0.0783912
5798 872 0.29103
150 8031 0.89029
7237 11604 0.126582
8691 286 0.890501
227 5116 0.181211
6649 16756 0.803761
2712 3196 0.0794677
7673 5313 0.715889
13493 8433 0.0135737
11375 7743 0.801155
14337 14847 0.0837386
8386 4383 0.619469
3883 2127 0.21162
10540 5676 0.845607
8911 16062 0.601403
9764 8505 0.181823
2194 17056 0.284404
10320 18321 0.0583364
4939 18544 0.537697
9624 6798 0.0870847
10204 2112 0.24449
18469 3427 0.212837
1333 4571 0.46672
3489 7989 0.0882222
9548 10787 0.992595
6705 11017 0.413683
6452 8422 0.575805
5164 498 0.269999
5477 11576 0.932509
10720 4805 0.411712
12096 8048 0.834747
1214 3852 0.114612
5949 11022 0.824716
16382 7460 0.462393
1503 11753 0.569408
10928 10088 0.120001
5521 19302 0.0845101
10993 4605 0.563502
2533 16022 0.315598
9888 11940 0.55957
4451 5514 0.144835
161 18123 0.314845
918 6244 0.59746
15416 6249 0.615154
16920 19918 0.0789716
10961 10005 0.16012
3222 4755 0.80972
11542 9355 0.55864
238 2465 0.428694
12393 16347 0.843036
1335 5273 0.177593
3382 9647 0.705575
10828 5603 0.16445
5845 4230 0.244493
14465 7568 0.323648
17623 8551 0.0739712
6484 991 0.786824
10921 13914 0.183448
17740 11186 0.82937
11065 9977 0.593955
12200 14120 0.611806
6770 18655 0.563692
10250 6878 0.932804
6485 8392 0.108485
4334 1795 0.748016
3591 3674 0.243397
5040 7509 0.395447
16574 704 0.968261
12267 7124 0.844568
4503 7599 0.380704
12384 7717 0.703433
3549 6880 0.583022
12322 9733 0.343296
5879 18440 0.0973636
7395 4365 0.453129
496 4237 0.0791005
12788 543 0.471043
15399 5614 0.620858
16574 5077 0.0992078
7379 1434 0.679371
19033 1849 0.828398
15119 12886 0.191357
14110 9261 0.88072
14253 12811 0.298055
4510 11562 0.454702
10652 3185 0.64283
10576 9408 0.211766
1366 868 0.940793
6453 3746 0.990745
1867 6072 0.723584
3206 1160 0.356165
7976 4908 0.903894
14208 19605 0.751234
14137 5345 0.911089
2077 15629 0.584392
2143 9341 0.845226
1536 7125 0.395378
16001 2488 0.511535
1367 9389 0.795671
1688 6449 0.807483
4511 7489 0.351678
2464 1277 0.787086
12605 4176 0.563697
2429 3301 0.0706828
7725 2141 0.110376
3613 9965 0.581792
5888 9261 0.216133
12251 4088 0.724574
5592 10348 0.0670807
1679 6263 0.465272
16139 1371 0.188533
10610 8471 0.0712326
5301 12033 0.414299
8841 2417 0.216574
2684 399 0.27513
4148 5826 0.53617
12322 11238 0.594679
5298 15488 0.672647
4312 7784 0.0257119
5418 8704 0.600104
16807 2052 0.893954
7438 13304 0.854951
10609 486 0.868417
6770 6011 0.813221
11906 7692 0.637135
17110 2945 0.186227
18629 5812 0.476353
11914 2691 0.922542
1811 1400 0.139814
6586 3475 0.913545
14463 11303 0.153908
6185 16156 0.289817
14317 10167 0.840227
16994 15777 0.759889
11291 12866 0.677499
10752 4927 0.234022
4574 9368 0.521046
6377 2840 0.308947
9137 18296 0.906255
1894 6191 0.343805
10336 12245 0.816357
18849 1381 0.0596142
16982 11103 0.986721
6331 12715 0.493028
5273 7676 0.0786862
12076 10119 0.468932
1416 7691 0.110462
3751 503 0.0852038
3446 937 0.962517
18517 13309 0.724491
6228 17175 0.86247
6433 17780 0.393816
1714 1623 0.551996
5892 4382 0.555988
14313 11119 0.163844
7240 12150 0.735703
1209 15996 0.820529
18703 3478 0.232297
10228 11627 0.180098
4374 7356 0.100713
6113 7582 0.1742
477 3971 0.713225
6114 4578 0.636621
9826 10971 0.35585
12130 5765 0.734237
2763 1447 0.0823964
7440 8254 0.207315
13012 1076 0.988458
500 14833 0.0947976
3036 9153 0.91561
3726 1695 0.0294574
12673 11484 0.272347
1364 416 0.280271
10420 764 0.253248
11583 8480 0.838838
22 2097 0.056973
6983 6560 0.437945
1790 8952 0.902721
10232 7735 0.948897
11168 8867 0.556674
6908 9124 0.0424523
8004 2874 0.965131
401 78 0.258845
8246 7159 0.824538
974 4014 0.93766
9214 2451 0.0621043
933 4794 0.458269
11452 6487 0.320113
19635 12432 0.976697
8590 11534 0.413432
11508 7348 0.732085
5919 8645 0.460138
15538 10028 0.822233
17590 5498 0.884147
11462 2656 0.00802258
1770 19890 0.254038
16762 3625 0.552173
5700 10159 0.50523
13705 10979 0.918736
11789 8645 0.130506
1974 8927 0.293011
18720 5318 0.721146
9523 10803 0.53299
8320 14815 0.662129
17191 6664 0.180026
4545 12390 0.197246
1662 6743 0.0531025
5359 1014 0.993557
11762 3780 0.822046
3512 15948 0.615488
2221 10177 0.267906
9151 1820 0.013928
4831 10812 0.173505
3789 19798 0.791605
14913 7708 0.903347
9661 12341 0.208764
7213 3502 0.395004
11359 5849 0.818194
6670 12135 0.423408
10222 9609 0.0295943
8545 8039 0.356473
7123 122 0.345946
896 16032 0.164442
4410 7097 0.783049
6564 10080 0.60902
14348 10980 0.23178
10281 17942 0.929836
13026 11068 0.19732
11678 6695 0.848709
6583 12019 0.809274
17551 8957 0.651548
2064 18492 0.307364
2906 16093 0.905286
1798 2708 0.735541
2051 11423 0.0115468
12745 1952 0.281105
3615 333 0.583538
8221 7103 0.74471
3469 10861 0.228828
18798 14610 0.70934
14484 10028 0.388208
6612 2339 0.586509
2691 13355 0.960323
2776 622 0.893582
5660 13952 0.232733
6033 15252 0.630569
9799 9350 0.857787
18883 15766 0.815012
16058 13719 0.558632
369 15091 0.458605
2453 8453 0.826212
13841 8739 0.705116
17482 19754 0.506073
10973 8270 0.905477
8092 2015 0.0617587
17881 9268 0.292419
18033 10266 0.413712
11226 12290 0.147034
11805 7208 0.967223
13507 11747 0.517731
1789 831 0.878609
9710 9230 0.615073
12133 10275 0.203396
5162 13119 0.720066
11644 1207 0.817126
13319 19711 0.866169
4553 14060 0.399456
2037 5759 0.428076
4622 158 0.169734
12631 5725 0.476275
17233 4273 0.732867
19276 1766 0.0651115
11429 12007 0.0113547
18310 3614 0.0715848
5679 9313 0.550857
3207 7976 0.49943
12180 14971 0.429467
8855 4228 0.941498
3587 10486 0.133595
11948 4374 0.0865252
19940 16342 0.954088
3997 6557 0.631176
666 12557 0.291004
1289 11841 0.0884466
13312 14 0.943604
10458 6117 0.0886109
1513 8157 0.0679961
6629 11543 0.790016
13257 18488 0.00875017
4944 12697 0.499249
2554 7447 0.100818
18694 3353 0.950023
7735 16823 0.0106901
2244 10098 0.479975
16838 12197 0.60335
4514 11338 0.0617681
18997 4163 0.975873
6449 8209 0.870294
8307 2198 0.605132
12774 8100 0.189022
1165 6337 0.303761
18132 9960 0.486384
8216 14360 0.0457484
9852 9378 0.595697
11434 5261 0.948487
1422 9831 0.0121628
7181 10571 0.341165
1007 17513 0.573222
17951 4670 0.900522
6538 3836 0.145479
2128 7996 0.43624
5283 5972 0.409342
1729 18586 0.879569
3538 3661 0.712727
5185 18215 0.120247
16265 14631 0.626756
3993 3900 0.968152
10604 4067 0.641216
6186 2129 0.160853
2422 14873 0.0318549
9827 15801 0.610831
11536 260 0.505893
18310 10427 0.496212
7095 10013 0.260924
19571 11409 0.667111
7912 8001 0.487767
19682 10399 0.904683
5274 1525 0.25526
5897 18313 0.69898
1678 4920 0.674899
4499 11282 0.0108393
17378 6665 0.700657
12471 9626 0.0660253
6886 4705 0.18747
9669 2184 0.314402
1522 12721 0.20239
6995 5925 0.301394
7664 4830 0.0960131
10301 10619 0.591914
663 12067 0.486933
14449 5511 0.022955
1213 13520 0.146073
8715 4692 0.2258
10958 18626 0.00746048
13082 19283 0.661663
18118 4422 0.299833
10695 2081 0.731195
18653 12376 0.106569
6604 18781 0.996882
6904 1219 0.490648
12231 4088 0.399072
12703 15095 0.233075
8276 9838 0.299523
3752 19111 0.0779267
2715 14233 0.843572
6677 3514 0.775872
14445 7509 0.961602
5092 10382 0.0524176
10480 2365 0.894421
4898 4051 0.341261
612 8379 0.63514
19132 11297 0.76466
11861 16924 0.761341
7378 3186 0.767576
12765 9824 0.560828
18753 1609 0.811415
275 10895 0.454144
12709 3936 0.24553
6860 17202 0.209517
10444 185 0.415477
2878 11328 0.301788
4274 29 0.730977
19330 10583 0.70809
9506 14157 0.633202
10013 11755 0.554197
5975 914 0.843013
8748 7898 0.883649
6306 2047 0.836394
6350 7362 0.761729
2608 2967 0.167192
5068 19248 0.244412
11053 9135 0.789483
4613 105 0.0785634
124 4708 0.329908
5284 12575 0.144034
9200 11812 0.901775
3080 7136 0.450661
2283 3867 0.678294
7262 5553 0.582069
2767 10877 0.817874
11414 17461 0.405977
569 11241 0.941879
16637 12903 0.639684
5890 5466 0.936005
11381 7488 0.858013
394 8451 0.78271
1876 12052 0.878869
2591 268 0.403792
8996 5622 0.47231
4031 10210 0.317177
5322 2802 0.48904
15056 7868 0.02862
18079 4490 0.863707
11789 11280 0.717109
4647 17454 0.0566466
9797 5564 0.191291
2823 8213 0.797682
2804 7429 0.690299
9309 6485 0.893055
19522 4272 0.453814
5915 2185 0.296817
2198 5020 0.615279
10096 18208 0.0311405
6417 3648 0.113925
14235 9456 0.436942
9731 12561 0.791102
13664 18579 0.181307
13831 2621 0.336863
5009 2153 0.13324
1197 2784 0.824057
4278 936 0.468954
10350 18752 0.634281
6582 9458 0.236829
4175 15611 0.553494
5526 15344 0.92716
7905 16163 0.492089
8983 16337 0.505658
8994 9140 0.0233137
10293 5164 0.924993
695 14675 0.803761
3001 7044 0.69502
11529 14017 0.315135
6966 1858 0.67479
12004 509 0.567606
7248 4517 0.857417
11730 12785 0.950466
12668 16037 0.547404
16964 6830 0.722737
10508 8268 0.762269
6641 15167 0.998299
1045 5429 0.176642
18549 4621 0.335825
7643 6725 0.321523
3166 2211 0.609987
2755 1538 0.412755
8843 9519 0.374373
11338 18335 0.0409384
7810 12096 0.791931
2782 5939 0.298287
17818 11709 0.157949
3190 12514 0.558311
11842 4067 0.433472
9852 4572 0.338573
6803 10360 0.703986
4259 3682 0.631292
9553 1899 0.133545
5565 2540 0.521748
4977 8902 0.114612
2551 19368 0.925537
4566 7464 0.962043
11542 12144 0.248168
2668 420 0.610181
18332 1678 0.558007
2009 9196 0.763259
18007 10423 0.586707
8533 607 0.107677
16626 16859 0.75013
5136 4493 0.857024
10586 294 0.326779
2394 7024 0.397656
812 14270 0.641291
3420 951 0.789269
12187 8278 0.699852
5679 11248 0.12384
18038 9357 0.223245
16296 6085 0.972293
10397 2643 0.999349
4711 7266 0.0967726
399 1518 0.847217
19826 4333 0.599471
18969 18617 0.592419
19932 6728 0.66827
4003 7617 0.393428
3952 10544 0.0983733
631 506 0.02812
6211 18944 0.340719
16066 7450 0.427027
7312 9154 0.85961
8004 12075 0.117216
15483 14257 0.767676
2618 7530 0.0827326
12244 5277 0.02862
6081 9686 0.369518
12576 9195 0.825601
2950 6829 0.514253
1283 14583 0.808741
48 17853 0.834611
12084 8982 0.635393
3732 1987 0.881629
4328 6603 0.45461
3771 18631 0.102181
5175 6943 0.840292
3845 8562 0.0553572
10053 12402 0.409111
9142 3687 0.828488
10574 17608 0.742558
2779 19489 0.871629
4178 779 0.0692614
850 11199 0.0683528
911 14305 0.127421
9944 4139 0.296665
9716 8551 0.383058
12494 11376 0.343956
11519 14333 0.0684779
12390 5515 0.865082
16945 1430 0.299012
7494 17971 0.53805
13838 19170 0.481006
11511 9794 0.320344
16322 9237 0.308894
70 11455 0.119443
16045 15323 0.95042
13576 9974 0.412684
4564 10049 0.790038
9449 8569 0.425559
2725 4410 0.0794749
9715 6480 0.382556
18695 12209 0.949391
2743 11373 0.520406
176 9495 0.654524
4739 2652 0.75205
18660 4239 0.169883
13773 7885 0.670308
12083 19292 0.26289
6673 662 0.345588
1839 18769 0.136153
6959 19088 0.213049
14463 6020 0.445752
15282 10589 0.648071
7331 1853 0.702475
13257 12600 0.473619
1418 9819 0.50978
2663 9212 0.87815
8768 11390 0.233474
3687 8440 0.125661
4258 3292 0.244964
3395 13365 0.17531
11865 8406 0.182363
1735 4834 0.252347
14630 891 0.703325
5442 6536 0.615154
2895 11255 0.329733
7001 6606 0.464283
8802 13121 0.0862181
8892 3047 0.145556
11608 10483 0.145505
9239 7859 0.581975
8459 8178 0.472831
11501 10838 0.756939
7721 10357 0.674156
12188 4250 0.529471
7687 7338 0.800669
491 12371 0.888943
9613 15056 0.0644164
5803 4796 0.815607
3346 64 0.975557
1549 8352 0.750115
818 3677 0.44614
3819 2279 0.793003
4432 10370 0.43395
703 7536 0.471693
7480 12792 0.171383
9948 5876 0.0855591
1213 10815 0.816223
10863 1333 0.643712
10729 2316 0.476599
2726 18024 0.028151
19770 7995 0.820322
10294 916 0.133365
7624 2252 0.752809
9292 8628 0.0970087
1699 14355 0.676226
6671 16 0.778912
6994 16009 0.646148
10182 4276 0.151031
19402 19645 0.116558
4778 4791 0.513266
9248 13775 0.302844
2857 13654 0.11981
4903 409 0.745599
7983 7027 0.865041
8120 19089 0.174645
1208 12054 0.647876
14841 5803 0.792169
11526 5729 0.716993
7565 15905 0.133407
19659 11250 0.151285
7220 6736 0.599275
3175 13485 0.850454
6033 868 0.612777
6618 14255 0.396097
9082 5451 0.189087
6552 1479 0.246697
17700 11097 0.488079
9507 17712 0.250931
13328 9097 0.798586
6720 4294 0.498712
16210 13500 0.111081
8752 5736 0.0464191
13369 4008 0.626692
9579 5849 0.621593
11550 271 0.309072
2266 5932 0.204592
9849 5335 0.833763
9446 2747 0.0117922
10510 11336 0.472941
8371 725 0.742234
4817 2510 0.0464191
19625 698 0.608545
6956 433 0.0924066
8641 2562 0.558583
1798 11544 0.602605
2310 7903 0.314231
3163 325 0.785799
5788 869 0.876553
16475 11251 0.688455
6837 1710 0.389618
3394 616 0.569118
2716 1440 0.300315
2666 15600 0.312658
11093 4925 0.941359
8772 10918 0.00811605
9833 6017 0.952174
7681 7460 0.543456
9643 3918 0.854423
1691 18710 0.718968
13578 11257 0.0710308
2265 6324 0.171486
18337 14138 0.6399
12751 3075 0.322735
5558 5495 0.319743
13756 15443 0.96683
19416 12493 0.711715
10399 1573 0.452696
2877 18048 0.440788
2811 4666 0.650912
13055 10831 0.78826
173 11539 0.905313
17026 7168 0.172476
805 6919 0.827793
9916 9397 0.0525079
739 1048 0.0727519
10194 17019 0.388042
10634 10773 0.152973
3066 11797 0.937768
1831 9454 0.828561
10254 15713 0.520246
12511 6313 0.762368
10589 8083 0.665197
12704 345 0.654524
3034 15522 0.716164
16280 6915 0.423449
16332 1232 0.503824
6625 1480 0.28545
5230 17858 0.759823
13166 1950 0.747528
8277 4138 0.429496
9698 2159 0.593218
15745 16365 0.0121628
3558 8756 0.356321
11209 8142 0.651549
9555 8010 0.214336
14255 15634 0.431548
11354 17245 0.231066
5451 4349 0.0303248
4441 9178 0.859202
17499 14088 0.315932
2318 9617 0.530306
7187 1604 0.232266
3901 6942 0.281593
492 9003 0.270881
6574 5654 0.274123
12691 3903 0.261805
1674 13840 0.340146
7311 8332 0.857255
6326 12480 0.0844
10606 3418 0.452496
12320 11218 0.926702
5965 6902 0.203099
13280 16091 0.301309
13297 4185 0.411797
9868 8812 0.63834
15769 9439 0.887627
16781 1433 0.878998
3051 212 0.111597
4398 1771 0.371449
9622 7944 0.547666
1456 4922 0.0740873
3237 7876 0.624382
9116 9932 0.408219
9926 6909 0.00322109
19471 19842 0.868912
5873 5053 0.0610581
9267 5574 0.248224
2806 10814 0.695407
10877 9386 0.541015
11306 1263 0.887943
8176 15750 0.0993957
5748 3915 0.0418358
7491 19842 0.834435
730 13990 0.618806
4236 8148 0.809812
16522 4975 0.536588
18239 403 0.074918
13573 1034 0.792257
16144 452 0.114979
7110 7687 0.50158
5323 17287 0.688352
15194 1810 0.747909
3460 15454 0.83875
1560 9785 0.552522
6476 11761 0.169739
7522 4559 0.166499
10510 19241 0.0883199
5960 8506 0.949362
3578 5579 0.849747
16181 8170 0.641935
14927 12802 0.497037
11690 12740 0.901991
17541 7292 0.690761
11757 1908 0.168478
6598 17781 0.277939
9172 9828 0.828274
10743 4529 0.115958
7552 9210 0.153506
10663 14274 0.910274
8718 9577 0.201472
6379 8312 0.760834
7396 11689 0.471212
15128 1513 0.60686
8894 3353 0.668489
4099 18699 0.332584
3153 5798 0.220592
10801 11748 0.727593
4561 13175 0.619755
16885 1676 0.495272
9634 18860 0.400646
14325 16844 0.577668
13460 5172 0.927671
2947 1590 0.26132
15933 7375 0.753062
4411 12279 0.324795
5880 5502 0.0888526
168 11939 0.742318
5412 1211 0.744636
5907 7602 0.349822
16450 2970 0.144555
16033 6247 0.993336
1001 13508 0.0629415
4119 15286 0.454674
7641 685 0.48331
17545 11761 0.480228
7498 1071 0.0906488
17637 505 0.441166
5876 2255 0.16239
970 2220 0.827608
11478 14860 0.0957366
749 1512 0.940495
13600 3422 0.936121
14957 16757 0.467203
19647 10712 0.0731834
12689 6312 0.604793
7506 1852 0.350515
12290 4469 0.671357
14909 7302 0.636521
6524 10267 0.40123
4448 2255 0.120936
3403 14916 0.446987
9590 7774 0.3099
17494 8309 0.848179
5596 7973 0.0870444
19231 8294 0.0513872
7794 7351 0.33996
9412 13109 0.3323
8026 16283 0.874461
16712 130 0.761961
12667 3817 0.432867
322 4244 0.0153308
6942 1366 0.193411
11450 7547 0.333877
8752 11055 0.70741
12130 352 0.489977
7779 7806 0.446449
11371 1842 0.846036
1459 3577 0.140293
9378 7299 0.699781
15217 2768 0.899995
10215 2844 0.868943
3192 19646 0.973395
6204 11277 0.700194
7528 8616 0.130435
6278 6209 0.355745
19208 4030 0.0419591
1009 60 0.943678
2802 8592 0.62655
2893 5034 0.99713
398 1283 0.267951
8486 10984 0.575987
2248 11254 0.403717
9852 4690 0.45725
14809 12563 0.878421
6283 3925 0.14928
6069 19804 0.21868
2945 6398 0.0716877
7905 17235 0.953234
11803 5675 0.193946
11895 10602 0.514491
11291 12038 0.317311
19897 7456 0.167065
5675 8513 0.475822
19766 1046 0.229844
2592 15495 0.871492
19457 4537 0.951636
74 1383 0.508406
9897 2099 0.616518
13427 6962 0.259321
6601 11137 0.898761
11667 6028 0.51733
17707 10283 0.237228
10072 222 0.325271
5942 10543 0.551996
19250 9549 0.828124
5803 15545 0.487346
4047 19404 0.668996
661 9055 0.679733
13883 18264 0.568786
16790 2138 0.685985
7499 12881 0.796609
4080 402 0.751994
15433 18467 0.904999
6294 12905 0.177754
4468 16642 0.664864
1350 15477 0.371424
1506 9941 0.721153
7 19766 0.263179
5943 8912 0.885591
29 1947 0.869413
13318 6508 0.030332
10227 17856 0.906173
18010 14284 0.767676
13483 17957 0.819613
13190 15595 0.449381
12126 836 0.387544
7869 9717 0.223804
10973 2535 0.588317
13411 7054 0.532756
6928 17756 0.336437
6062 9882 0.931444
18671 18324 0.652298
12061 11355 0.825652
7317 10204 0.334315
11230 4149 0.025231
4607 1283 0.601886
7322 12216 0.211131
14136 18973 0.501379
11610 11179 0.290838
12295 235 0.966246
18611 9826 0.510712
4140 19599 0.861961
3833 680 0.677422
3700 6582 0.973493
4078 15651 0.803473
135 19680 0.138836
3534 13066 0.576429
8030 7091 0.577455
12577 4992 0.199094
18176 19510 0.513527
19017 7568 0.073729
1958 13078 0.0260195
2543 18813 0.0154332
10712 708 0.198875
4645 160 0.794394
9775 2884 0.266341
658 2008 0.243636
10165 16676 0.454704
8693 2267 0.796864
3425 16585 0.0760599
11465 3772 0.520246
7645 14683 0.438299
7463 4647 0.0986365
18826 9315 0.701463
9578 526 0.763688
740 9773 0.605132
8454 17415 0.718796
11952 8783 0.262755
3058 17651 0.352846
16733 19781 0.677833
3915 9332 0.0936456
17489 12237 0.14858
54 11901 0.604676
13797 14895 0.233535
6850 10545 0.149777
3386 11592 0.100998
6 11634 0.651552
8069 3102 0.411564
12815 4190 0.553699
9151 6669 0.230259
8648 10335 0.237394
8924 5476 0.917066
17544 11967 0.230608
8811 16812 0.293265
123 11933 0.817642
15447 2335 0.944803
16495 7304 0.102418
16173 12642 0.816669
14039 15689 0.27016
2307 14381 0.220993
4461 8168 0.985603
14358 17700 0.21319
12113 5891 0.172834
4169 1669 0.094885
1175 9288 0.901214
1247 6181 0.143716
13951 1330 0.514808
14865 9726 0.908856
4415 6484 0.270554
9051 18861 0.404132
4898 18152 0.674677
16613 12632 0.543201
577 9760 0.461346
1366 15061 0.806939
5466 9276 0.0511086
6655 1827 0.276778
1455 10278 0.296488
9223 16926 0.0861352
10718 7313 0.657582
11538 8260 0.451798
19694 14943 0.701508
11783 14681 0.169529
9303 2483 0.429048
4959 5949 0.834279
11695 1466 0.556244
10671 17820 0.489453
11138 8914 0.751373
11904 16695 0.592091
2059 11773 0.286727
14745 848 0.713466
10868 622 0.701806
8456 2266 0.903941
8659 6716 0.601758
832 1062 0.263488
2077 18417 0.0117231
9037 12169 0.818922
11122 19856 0.724679
7587 19400 0.747771
11068 9055 0.483256
18931 489 0.840802
4638 10313 0.165166
12039 10726 0.65837
6702 17520 0.269999
12677 12084 0.45271
373 12791 0.899748
12779 8099 0.162388
6729 8702 0.846802
9202 1934 0.214633
7587 15624 0.859267
3164 3589 0.761275
8568 2716 0.633236
517 9411 0.101335
1721 1519 0.453647
10858 7654 0.360828
643 2162 0.16855
203 9001 0.208288
120 9975 0.665125
15574 7764 0.597616
5327 766 0.506865
8734 11906 0.288771
9177 12585 0.39217
9473 2746 0.884445
12023 17324 0.82922
13874 102 0.960933
16044 4528 0.359687
6540 11231 0.0969271
13556 10705 0.0327209
12193 8552 0.685322
19466 2734 0.577272
2447 9644 0.638765
7174 1814 0.905106
4122 14302 0.526226
11678 19179 0.913366
2680 13961 0.919193
5514 8197 0.774339
1187 2278 0.648607
3399 11381 0.322491
7215 1829 0.294342
9629 1753 0.640304
16498 3490 0.402626
11218 11539 0.369246
13114 7214 0.862738
8696 16495 0.677817
17981 2110 0.948897
11696 11153 0.207843
1116 5535 0.642431
11 710 0.371835
10734 18770 0.182041
16340 3333 0.790457
17676 1432 0.812754
12323 16853 0.00811605
6061 17333 0.283515
5222 6612 0.715831
13993 5741 0.243907
18757 2192 0.76814
14032 12291 0.608894
8451 3399 0.595949
14391 15526 0.334679
15488 7735 0.445163
11509 2763 0.788927
676 7016 0.712226
9566 2767 0.863707
17516 6999 0.512686
1198 13937 0.698214
10300 1219 0.441541
8011 692 0.875958
2589 3862 0.894927
10060 1285 0.533337
5198 6971 0.653603
3310 2389 0.362023
3315 12605 0.443809
11363 5326 0.641577
2790 11939 0.112261
13105 1641 0.999002
5445 1384 0.243201
7985 2522 0.418555
5046 10941 0.846367
11149 18991 0.638184
16611 8513 0.678656
2101 2397 0.294855
15594 15805 0.211563
14401 12196 0.225635
11256 3455 0.708205
9693 14512 0.490412
6428 3567 0.906255
4618 3897 0.827704
4071 3415 0.851458
11649 529 0.286962
10056 19836 0.968794
49 12690 0.32968
7202 10006 0.217665
4488 5273 0.542296
15199 17181 0.0530655
9984 208 0.508237
9322 12141 0.366746
4813 7525 0.959696
8336 11645 0.766655
9787 4252 0.00025694
8389 11856 0.414406
2998 16849 0.246635
11434 6633 0.838664
3861 9086 0.682082
2623 18409 0.5769
802 4229 0.676259
3812 645 0.770963
10707 2824 0.234005
16845 8083 0.885322
1733 3115 0.00183318
9143 8643 0.334588
9105 7503 0.520517
7893 8876 0.435152
11693 9620 0.754848
3153 13748 0.727688
11099 18439 0.713609
11383 14414 0.918884
1351 7842 0.106215
17532 2648 0.90995
6301 18804 0.91115
11307 1931 0.237394
16378 12239 0.559427
14041 16782 0.897613
17391 1048 0.910597
17945 8160 0.0153308
16233 951 0.779788
19454 386 0.974911
12093 11935 0.735847
1533 18753 0.982847
3990 18104 0.286995
8216 6184 0.464038
8703 6516 0.0730854
6327 4960 0.565886
7696 16962 0.929653
393 11573 0.753133
695 15998 0.960254
18149 11696 0.537653
1331 4909 0.315657
7300 54 0.551731
4348 16438 0.317779
4005 3747 0.755228
6015 4807 0.0576848
14848 4753 0.71169
227 19850 0.0693824
6073 1950 0.35704
12041 3147 0.0273326
10331 2082 0.42883
9663 5354 0.0153325
6317 11610 0.247068
12302 4120 0.892213
18414 3545 0.0882214
16824 9229 0.277555
95 10671 0.918135
508 3899 0.39078
4502 10604 0.695097
11971 6325 0.0429898
2991 10156 0.943785
693 12877 0.577444
16322 5574 0.193656
8124 1270 0.754782
19327 11234 0.297291
664 11997 0.190118
17200 10019 0.649124
2284 2981 0.803421
8491 2192 0.0418267
3715 19832 0.491408
8268 11335 0.12096
4277 699 0.367986
9755 11062 0.600621
11784 11072 0.53042
4751 10737 0.477047
9719 3138 0.963132
14556 8506 0.751641
3224 9746 0.210094
6288 11348 0.87488
9068 4095 0.137069
8910 6784 0.535582
1476 11016 0.857887
2998 19666 0.0826978
933 513 0.310552
15474 1622 0.283496
9780 8284 0.636063
12625 7574 0.329032
7800 754 0.438104
2516 18959 0.049398
7194 857 0.580152
4579 10772 0.529072
14371 10416 0.824942
13309 15644 0.114733
2149 44 0.49323
11169 4397 0.0670547
11633 15399 0.913067
10835 15848 0.343342
17160 16173 0.910597
8595 12154 0.213721
7452 15340 0.384062
6186 7632 0.425267
47 7631 0.462149
473 19713 0.133365
5503 16100 0.526486
902 1643 0.706196
8072 16159 0.132405
7661 6638 0.932804
2943 13891 0.785999
9733 14784 0.0779871
11424 12438 0.856658
15751 11881 0.174532
6872 698 0.657947
1768 124 0.644817
12060 19203 0.300528
5691 6475 0.237072
11728 13707 0.776935
17714 5657 0.864983
17694 7645 0.786841
2419 11115 0.205373
9506 7119 0.477363
4627 9322 0.243785
6377 7050 0.00116375
11144 2101 0.622388
11176 995 0.53999
10208 18482 0.300315
15096 438 0.653179
18594 4651 0.538864
16511 7959 0.169201
7796 11923 0.963788
15658 5411 0.342797
13148 290 0.628876
8617 649 0.832293
5968 3328 0.360737
4567 12763 0.10393
6522 1175 0.747545
387 4774 0.597155
166 1823 0.783546
9440 1218 0.770515
17017 12693 0.608205
15331 16392 0.908342
12091 12315 0.842782
7854 79 0.465643
16478 3364 0.641145
10700 8204 0.416912
8278 8955 0.248391
6806 12536 0.945653
1761 12615 0.522514
13088 5386 0.569289
2645 4958 0.982509
4375 4264 0.597055
11710 12560 0.610831
16383 285 0.428841
8325 8474 0.747703
2916 752 0.76748
8094 17946 0.790838
2167 18456 0.619328
5547 7513 0.958071
553 1441 0.445752
11906 17450 0.626184
813 10124 0.671665
9556 10016 0.640997
6294 2174 0.534392
1950 9793 0.500176
1173 2250 0.894381
4811 1877 0.898038
5139 6204 0.303572
1198 8961 0.793745
7149 5649 0.528157
16863 8886 0.271777
7291 11738 0.0912095
19141 10825 0.370484
8095 3794 0.870636
12601 9622 0.0753067
10914 3999 0.259546
3395 17111 0.00366127
10987 10941 0.312989
17264 19581 0.583064
405 3508 0.370726
17208 11708 0.258286
9575 1019 0.00938392
149 11797 0.0406727
230 7047 0.944033
16649 18695 0.809524
18658 708 0.0181717
1279 10104 0.934765
15311 12706 0.561865
12601 12924 0.133574
4757 1697 0.587078
4632 11651 0.753916
8598 4175 0.0429112
8775 9405 0.148255
1730 2414 0.389611
1631 2874 0.366329
15639 14961 0.271039
18490 4597 0.867407
4475 2252 0.41941
7720 17610 0.218365
4641 8973 0.460159
8840 319 0.39613
3892 7536 0.935051
16692 7147 0.626212
12336 8294 0.830773
11638 18779 0.0023097
2401 1425 0.164636
10800 12590 0.739681
11489 1695 0.480254
16903 6798 0.53992
5471 5064 0.0212003
17281 11644 0.626879
3692 611 0.114587
19965 7328 0.938387
6585 13995 0.0601869
711 7234 0.202545
3085 15897 0.587658
402 3358 0.814263
3500 4123 0.293741
7931 5919 0.197668
6693 10980 0.965117
4165 12278 0.771357
9450 6375 0.46598
8945 5834 0.211284
14554 4898 0.858561
4122 11065 0.317269
11137 6101 0.739543
9115 7291 0.436531
4339 14622 0.364882
10987 791 0.974128
1129 6658 0.530647
8230 17065 0.917734
4163 16020 0.478066
12200 6545 0.170397
11424 6080 0.430391
753 13043 0.216133
3391 18825 0.824538
19264 17765 0.884754
18896 4849 0.124322
5317 6585 0.786867
3325 313 0.166582
19792 2107 0.606509
10859 812 0.0630172
18968 4416 0.852014
11553 12572 0.462424
512 9393 0.889913
5033 2060 0.590208
10368 4472 0.233108
18358 3806 0.874163
4757 2641 0.30745
19183 6565 0.64308
14491 583 0.507537
10263 2027 0.64716
16178 19582 0.458826
1903 13063 0.0328905
5365 17669 0.996622
872 5267 0.0295943
10421 9831 0.639486
4426 6428 0.0582359
3400 3775 0.144455
18462 5474 0.783621
2100 5118 0.868764
8158 10792 0.434028
11321 3342 0.058622
6137 17088 0.993346
15216 17263 0.193814
6455 1308 0.697462
19419 8849 0.729578
8274 5898 0.783834
10967 12687 0.620119
1276 11773 0.0282982
18762 9751 0.994518
19499 6664 0.559773
9772 16805 0.743721
5386 15787 0.0806324
5522 2491 0.478671
8827 13595 0.507631
6744 10879 0.369022
12460 6057 0.187826
14951 11444 0.532992
15279 6848 0.777104
5031 16918 0.00489035
195 9533 0.0426784
17098 8338 0.886497
10847 6355 0.8641
5113 18604 0.204503
10954 6571 0.735868
7772 8896 0.340146
10822 4193 0.00985337
6108 2728 0.482657
6381 9081 0.475257
6767 4310 0.55231
16887 189 0.464283
7245 8779 0.994898
9854 6538 0.315053
9852 9299 0.0711664
18913 6217 0.376145
7792 4264 0.652697
12725 8833 0.768033
292 12455 0.0039922
19566 13349 0.746648
4205 351 0.679372
2021 14472 0.116524
17802 4567 0.166267
2591 8135 0.208229
19248 18149 0.133366
10453 4250 0.67814
7930 2061 0.687563
11624 9026 0.144338
18693 743 0.654148
10253 6777 0.491611
2593 8862 0.527089
3865 16550 0.0497547
19141 5818 0.144309
11166 2285 0.397815
1886 15225 0.787213
11272 16103 0.932781
18729 7470 0.766263
9374 519 0.120987
5446 10636 0.339788
6608 8028 0.123442
12700 5027 0.396283
11510 1636 0.82944
13521 7609 0.996652
6218 5468 0.5121
214 833 0.785999
13321 18514 0.0525872
3386 16027 0.273784
5668 2779 0.191143
12416 6022 0.884805
2066 19890 0.385848
2903 9966 0.318669
9458 4787 0.996111
2048 17424 0.165802
9169 11742 0.974447
16121 14041 0.528594
9886 3498 0.972622
6460 6339 0.751613
1854 1395 0.123362
8435 17830 0.222453
663 12189 0.525
5567 9028 0.770351
13389 8626 0.834411
9230 11191 0.386608
9780 7543 0.718298
19280 673 0.829206
14163 8525 0.947126
14980 17221 0.391179
10893 16415 0.924495
259 7889 0.52563
9385 5442 0.409489
13881 8389 0.143074
5656 1223 0.629852
2546 9703 0.812839
1548 3293 0.200042
6029 5347 0.733938
2981 12416 0.377158
12592 13384 0.832003
3073 13042 0.666088
11324 6403 0.714211
10979 7170 0.460582
4480 7944 0.108736
17200 9510 0.938539
3236 19018 0.923149
9741 1857 0.730154
2884 8805 0.449758
12607 7609 0.883336
2932 5021 0.304615
12647 3015 0.889463
12416 8848 0.514964
7203 12375 0.0662207
766 310 0.841305
7172 18932 0.54447
4970 12391 0.145737
6746 5294 0.126203
15086 1844 0.630268
9383 8322 0.170999
16163 8508 0.899699
9182 9275 0.51048
15376 7850 0.409856
8373 16545 0.793293
6239 1135 0.70444
5365 3473 0.0938537
15356 8676 0.130709
955 11645 0.568171
353 8275 0.659113
16094 8919 0.519928
19606 6638 0.676471
19213 4017 0.569568
1312 7196 0.538997
12459 16189 0.619137
13269 19696 0.0348958
5605 1362 0.142756
18031 5581 0.0516555
9861 8605 0.784229
5822 14334 0.837617
5725 15695 0.281457
9621 7198 0.493648
8718 8550 0.439929
5050 15483 0.744636
5812 4781 0.87296
16059 1261 0.267359
4849 6642 0.584442
11957 10881 0.645233
396 7816 0.616675
10960 3270 0.0944608
8627 1589 0.380059
9255 11884 0.637522
10206 19317 0.186055
1082 6761 0.00587019
4453 7855 0.68772
6241 3042 0.535131
13031 5293 0.89027
6289 13237 0.369193
8902 11756 0.905872
4160 8005 0.495087
5666 10671 0.828497
6883 12771 0.383744
11070 5223 0.369434
3863 10793 0.639859
3099 19178 0.26957
11852 943 0.769853
6206 7453 0.660411
3626 9558 0.0204757
9177 1354 0.121873
6415 12350 0.857876
13704 3649 0.523522
8668 7547 0.643076
3540 7420 0.210427
11419 10577 0.200042
11194 18011 0.953189
10038 5487 0.39454
12549 9180 0.251948
12037 1077 0.0297099
19223 16714 0.405268
15557 4253 0.138136
19988 5145 0.338017
879 11988 0.120219
2614 1885 0.627237
270 15381 0.576611
5645 15949 0.462853
3942 1988 0.583919
4803 1854 0.447164
5201 12301 0.139358
14497 15247 0.540022
6989 18665 0.579079
19255 5895 0.0163373
14382 3942 0.551233
4184 12653 0.836608
9407 1076 0.406731
810 15790 0.110766
300 5800 0.439496
7513 5342 0.780252
8640 3209 0.794287
10190 1848 0.478767
11851 19925 0.338151
19692 1851 0.962945
8066 2683 0.989984
7965 3856 0.963991
19797 2800 0.574983
1730 5066 0.714871
13553 5515 0.0202127
7425 10988 0.816203
1317 9374 0.0796076
11308 11540 0.35246
7182 3458 0.523598
10990 3848 0.161221
6691 9818 0.875706
9115 8419 0.760897
4064 16475 0.374888
8822 9264 0.158458
18642 5216 0.44596
1218 3325 0.869094
14331 15896 0.698693
5915 10390 0.550473
7503 11660 0.0978293
14072 14530 0.783559
13283 9956 0.207205
3299 12356 0.502014
13321 17442 0.286221
4713 9937 0.0420006
18244 19169 0.383246
9837 16064 0.668879
11141 15359 0.184299
4508 16132 0.030756
7180 8835 0.293069
16925 283 0.435422
7001 9265 0.888911
10022 12048 0.623108
14570 6824 0.890768
6228 2351 0.740251
9543 7170 0.418282
5511 1275 0.501169
12278 2577 0.80721
3354 7344 0.556285
1581 11040 0.350633
7281 12894 0.954431
18399 5516 0.119774
1184 3394 0.117391
11170 12798 0.997058
13580 2701 0.464929
5310 16443 0.297725
3546 12320 0.369704
10679 18876 0.182041
5806 4971 0.843599
5431 9570 0.870732
2682 6856 0.27996
8857 11828 0.843245
2721 5039 0.415102
15790 797 0.696168
11918 5944 0.677071
7113 8105 0.344967
952 14589 0.956786
12140 201 0.760077
13179 12990 0.0672765
13978 13814 0.265146
14025 3151 0.976447
14722 6853 0.967327
9739 12372 0.331754
5227 4197 0.182132
17930 13786 0.882875
11272 18386 0.256451
8450 3779 0.445819
8921 1111 0.574804
9588 710 0.536605
3199 12211 0.129717
5057 10548 0.0158475
5144 8253 0.917524
3421 1335 0.119986
4319 12989 0.739166
4284 13917 0.205623
9911 6232 0.30075
12467 12492 0.510982
1893 11789 0.527417
1475 1997 0.889662
18093 42 0.192422
9674 5228 0.850046
15124 12038 0.596466
16275 1644 0.449758
5727 14809 0.572526
17868 1668 0.97944
13966 11901 0.66694
9317 8541 0.842938
10261 5513 0.755021
5301 3051 0.790159
9939 3310 0.595589
7582 2590 0.343495
7252 14932 0.186418
11213 13441 0.788895
6964 7697 0.391273
3898 19104 0.821021
14901 2042 0.724655
3296 17171 0.883275
11009 177 0.600663
352 17603 0.660374
6515 8779 0.530716
5900 5227 0.204214
1236 2141 0.60225
1735 1570 0.528074
155 6938 0.702393
10521 976 0.635307
17099 11224 0.797131
4460 676 0.53574
11337 6132 0.424555
9241 19451 0.76315
16444 12909 0.140697
1303 9411 0.44322
5860 10680 0.571488
7691 16098 0.591622
17470 18859 0.769838
4687 6305 0.824433
234 7785 0.437952
5387 11250 0.362787
16467 6547 0.0915355
3497 2315 0.0137882
13049 12153 0.047689
16268 3600 0.958058
769 12255 0.808129
3438 17591 0.667629
11745 3032 0.727523
11092 19180 0.110681
2916 2227 0.693052
10741 11329 0.406796
3297 3028 0.478815
8298 17220 0.307541
15128 15680 0.249535
9577 8242 0.483096
15926 2884 0.303194
14743 512 0.492729
5712 1657 0.74451
1786 6995 0.54447
3753 7825 0.425792
4146 9596 0.912744
4432 4860 0.13255
2085 13618 0.752884
19295 13732 0.131752
6043 15492 0.637845
10074 10685 0.218764
12758 16135 0.116524
6098 27 0.462363
11009 12122 0.623765
17183 8868 0.895618
17585 3793 0.357912
6358 13448 0.455528
1581 9813 0.435265
5392 12734 0.412153
9047 7431 0.114733
13712 5189 0.302369
17772 13374 0.616704
17348 1947 0.378501
13704 5341 0.862957
16322 6653 0.604351
11938 11768 0.516604
7000 7845 0.12843
4367 6185 0.639649
4949 11715 0.94047
14855 10734 0.612272
13270 9049 0.80013
16027 13481 0.428274
8257 4569 0.0253955
16430 9311 0.829485
12101 8381 0.0571705
7828 12266 0.320986
659 2287 0.213049
1052 13712 0.172811
5684 4824 0.335226
7052 6440 0.379181
7689 18728 0.14478
15577 11446 0.911087
16281 14818 0.00956705
11846 1246 0.553437
11161 13063 0.984297
8611 13533 0.706683
10929 9681 0.195097
18119 9070 0.796402
6197 19231 0.0291634
11404 4376 0.415052
17996 13765 0.966802
6646 4098 0.341432
9913 4402 0.163551
2728 4859 0.55795
2594 17815 0.727513
19148 296 0.300061
8651 18829 0.158726
17267 19910 0.953577
8262 7273 0.00135031
924 11683 0.602116
19006 16380 0.554429
14422 1833 0.228554
6012 1757 0.260549
7043 13119 0.485232
3742 18787 0.973568
10792 7045 0.449939
19412 961 0.326418
2843 10395 0.198714
19374 10244 0.0550097
4794 275 0.794921
12463 15411 0.663634
9008 399 0.680219
7301 5315 0.772066
12200 16398 0.600374
5832 12026 0.928321
11476 10290 0.919854
1365 6569 0.62254
5452 17511 0.937588
17421 4737 0.984442
1262 17213 0.163352
1117 11937 0.669398
7565 10449 0.965508
17305 3503 0.562213
6697 5928 0.389443
13011 2232 0.333465
12251 1092 0.870933
13588 18967 0.462159
8261 8558 0.606806
12857 13749 0.574119
4826 1265 0.333877
4741 17131 0.743268
17651 16907 0.983855
5765 991 0.679448
8178 4573 0.994089
14356 16655 0.568862
7990 12244 0.739364
5779 7322 0.847107
15929 3545 0.643712
13239 8099 0.521577
3346 9356 0.991033
10291 11367 0.947567
14644 10969 0.961715
14607 6568 0.642755
4959 19131 0.462206
13920 9085 0.746756
3667 10370 0.88372
10156 6595 0.724926
4405 13584 0.0195815
8264 18576 0.81382
5091 13844 0.464707
7606 11527 0.110259
5846 18441 0.903998
19922 3273 0.401646
803 5498 0.823168
6909 250 0.669964
367 806 0.627267
17964 3571 0.32159
6081 8164 0.119124
6089 243 0.546056
17787 10238 0.0932844
9746 6167 0.595831
8536 7909 0.957907
1040 6404 0.985775
8125 14757 0.43795
9885 15191 0.502403
13930 508 0.176722
15122 8408 0.635914
11200 2116 0.969917
7678 6984 0.243111
6814 8712 0.88914
15515 767 0.776912
13824 7293 0.227656
8185 11775 0.47504
7495 1020 0.380973
9125 1785 0.807498
16891 12915 0.463968
7991 15173 0.917421
11183 10289 0.812021
17806 3765 0.233971
15004 4708 0.929653
1760 1625 0.585936
19896 4316 0.414576
8973 2021 0.015325
17548 15735 0.257657
1336 9677 0.94418
165 12530 0.242329
63 13380 0.847739
9637 9294 0.236976
9548 19582 0.490118
16673 18151 0.334621
7445 9856 0.249661
10367 8820 0.0787021
6084 5743 0.856393
6736 6549 0.402531
6402 3240 0.205486
6364 1124 0.178693
8878 12814 0.873147
15929 10392 0.888943
6550 13044 0.299259
4697 3448 0.316479
2831 11275 0.911817
5464 6233 0.678387
8728 10766 0.445442
4587 2828 0.638184
14124 6761 0.159445
1562 8948 0.317175
14630 720 0.299047
9792 14912 0.969868
3267 2140 0.597136
18326 12653 0.409876
5788 658 0.457325
16609 9937 0.95601
12586 7702 0.539022
6153 4516 0.0453083
943 17437 0.676872
6835 6851 0.236127
6402 14269 0.275233
19915 2718 0.463199
10268 19490 0.379931
870 18197 0.883316
15581 18740 0.84887
5617 1706 0.292995
11255 2393 0.704236
11173 18094 0.904079
12283 3932 0.033824
7340 1854 0.340582
2917 9650 0.942925
9444 3381 0.596146
12328 5767 0.472172
4557 8104 0.8422
1725 5236 0.00265541
6499 727 0.193725
6639 7777 0.585912
1828 18384 0.775803
12338 8205 0.544818
9506 2182 0.777104
12650 12151 0.279823
8594 12461 0.25651
17963 11834 0.286727
7444 7077 0.594843
19788 12518 0.284806
1519 8799 0.834462
12282 16675 0.505073
3454 9009 0.176642
1062 7714 0.455866
680 3762 0.625251
1397 1000 0.616536
3602 7378 0.492559
11785 19447 0.305762
16445 18674 0.493851
8761 17669 0.97507
5740 361 0.643432
7151 235 0.670962
4023 15711 0.720649
3429 10658 0.94564
11712 16633 0.535131
10187 3520 0.574816
748 18912 0.0793051
5055 15775 0.374536
10962 1248 0.892601
15081 10688 0.998224
10008 11781 0.954852
17933 6726 0.225558
6306 11209 0.459839
401 2521 0.164454
4885 11769 0.561452
9260 11167 0.398432
15656 5727 0.838651
7042 1799 0.719059
9808 1811 0.0600493
1316 10628 0.526604
5631 6043 0.0291084
11662 17448 0.718729
3808 9762 0.27598
4800 8179 0.318082
1536 5580 0.777388
12051 6892 0.0201678
1658 18762 0.0689108
2937 16531 0.0301915
470 3799 0.751671
11618 6548 0.767949
15050 1773 0.759235
16097 5072 0.237322
12490 13230 0.783385
4635 12290 0.514896
1487 5966 0.106714
7830 10074 0.540944
2690 2898 0.0180191
16269 12405 0.276165
19417 9285 0.652044
11940 10043 0.317232
6723 15913 0.475177
1601 12735 0.903697
2154 8609 0.561801
742 4937 0.915141
10045 9343 0.471885
7991 45 0.700657
1085 13207 0.7669
2009 5626 0.0404413
6431 13552 0.363361
5162 18824 0.0511838
1095 4495 0.582364
3514 2601 0.862804
8760 1226 0.307229
7394 14714 0.333049
7858 11680 0.671372
4152 11848 0.846492
7489 15858 0.686178
15512 12577 0.382669
1569 17006 0.204449
2353 7698 0.425708
4355 3713 0.83211
16711 11229 0.332535
14805 6586 0.49711
10903 10206 0.473025
11713 5574 0.431921
8006 4644 0.157045
372 11920 0.552182
11042 1132 0.657367
8979 917 0.103321
19444 4334 0.474775
7793 4435 0.464144
8486 3005 0.301682
8858 9640 0.253231
13166 2967 0.984129
17591 19339 0.294899
10357 13843 0.0593932
7069 10711 0.687168
1960 10449 0.286539
4599 2202 0.188722
11437 11800 0.472481
14559 11324 0.361391
5200 9545 0.881629
2094 7186 0.889644
1026 12693 0.827423
7022 17838 0.271168
31 1394 0.535954
1587 3806 0.985361
6890 6782 0.565824
14538 8712 0.282595
13167 8971 0.228574
3261 6934 0.414299
7634 18646 0.77161
15998 11331 0.450268
990 207 0.148073
5585 245 0.671327
10315 10173 0.167253
7740 12420 0.959874
16372 7886 0.256864
9629 4462 0.687459
18092 18645 0.900344
10705 1808 0.812839
12457 3674 0.663842
16547 6494 0.365346
4937 6365 0.553436
3523 10076 0.160824
12189 6976 0.730568
11099 11819 0.435793
15172 9595 0.28524
18694 16812 0.528906
11114 2305 0.444725
898 17798 0.583318
16120 8968 0.759908
18627 6916 0.805265
8615 10357 0.699887
5506 10220 0.495992
6823 11273 0.37071
1834 5468 0.0839678
1192 14978 0.658211
14220 18948 0.813348
2710 10554 0.976014
19919 4083 0.862571
5949 2896 0.814674
10514 11007 0.653955
2988 11450 0.875103
6025 2214 0.511535
15909 3587 0.847691
10530 12411 0.754024
3198 16264 0.299096
4413 12888 0.787512
9561 5724 0.177736
7281 13660 0.206422
10608 4441 0.453029
10359 8701 0.0909804
12520 5066 0.557739
2499 4481 0.643144
9822 9538 0.348306
12183 9037 0.22711
9890 3704 0.599972
5165 6627 0.740869
10156 10501 0.353526
2139 9293 0.989822
16178 51 0.634429
16847 9884 0.484957
11199 1181 0.1079
18062 9811 0.70738
10463 3006 0.834585
5509 12730 0.146329
5083 7311 0.477386
8342 1812 0.232576
18202 1007 0.400661
11283 11908 0.528936
4040 4232 0.916338
1893 10727 0.833379
3067 8128 0.369306
118 14012 0.354605
10089 11617 0.109429
4342 12029 0.405994
10123 17989 0.0748952
18245 4103 0.30458
18660 1588 0.878546
19093 5979 0.789174
7646 7559 0.333826
7010 2052 0.154891
18450 214 0.0723622
11705 10738 0.586509
3427 1756 0.293592
1963 866 0.902002
6001 3403 0.6784
6893 759 0.22962
925 10802 0.11556
7372 1670 0.306813
13601 9327 0.0524176
3685 4420 0.00772389
10006 3587 0.844644
6398 16748 0.187145
12095 573 0.711073
11954 17465 0.930823
5277 13763 0.345939
12926 8015 0.875283
7116 2157 0.242436
7181 11088 0.697974
2490 46 0.235429
14912 8300 0.128806
8256 1451 0.187902
8886 7104 0.441305
2540 4505 0.0712326
11929 8172 0.567567
16205 2917 0.497726
13148 4129 0.510881
3951 17387 0.762119
8431 18401 0.987711
4287 18131 0.736746
14618 4394 0.375099
3455 496 0.263835
622 10963 0.898253
12248 8222 0.868943
2354 4959 0.402592
2752 15260 0.452008
8298 10023 0.577455
7973 13603 0.536166
9055 4555 0.98258
12991 12819 0.0332545
3659 18416 0.0407301
596 2122 0.576268
775 5605 0.884581
7795 14692 0.764012
2969 3137 0.277574
2807 19270 0.250576
4464 2010 0.162593
10245 5873 0.421545
15866 6181 0.221459
1681 10860 0.470696
5035 15416 0.69937
8914 14977 0.957483
8126 7766 0.810122
14182 4343 0.191707
1073 3747 0.736583
4722 11004 0.671284
14052 5018 0.911817
9188 10293 0.0293507
11291 11730 0.260254
16029 10813 0.923691
7759 6310 0.420485
1081 12565 0.286313
8712 770 0.916553
7787 1367 0.185827
11132 8152 0.640997
16054 10290 0.583836
189 3267 0.192584
3462 432 0.856565
6013 7101 0.0780946
11107 10493 0.768854
2307 13360 0.909771
15866 6045 0.991544
18088 19457 0.640703
2713 16565 0.301644
5805 12527 0.579672
769 5637 0.63614
7913 3788 0.525312
6024 6876 0.815288
3500 14783 0.903952
3231 14107 0.462903
5809 18478 0.866677
3517 7458 0.596707
14395 13286 0.149807
10294 6082 0.96678
5896 11999 0.776326
11056 9694 0.524676
16484 7549 0.0682875
2889 11840 0.579347
6270 12191 0.471938
1866 9601 0.533417
17996 13127 0.858561
2239 17858 0.946177
8192 4660 0.0454392
17425 4860 0.342982
4334 4375 0.40276
102 7844 0.44476
2813 11582 0.229437
17895 1250 0.821098
16322 2407 0.63827
16160 13506 0.43889
11252 6955 0.535661
14299 8881 0.916021
6158 8091 0.380067
4349 2403 0.0716029
14028 12209 0.841314
2578 8097 0.710272
193 10117 0.355264
1393 2334 0.157253
8936 18050 0.882313
11242 9778 0.387318
12891 2772 0.24373
2031 4765 0.339325
7772 14610 0.099241
19744 476 0.751525
17095 4499 0.125903
19838 1361 0.570804
10237 8031 0.230894
15502 1389 0.770952
14032 5762 0.411477
5822 10641 0.750325
687 3356 0.365254
3040 9856 0.181885
3054 10747 0.0764832
9657 9159 0.462848
4392 19293 0.573121
18686 12620 0.607894
1742 15610 0.988865
19271 12771 0.352002
10341 6633 0.203783
6513 5002 0.464876
1167 4287 0.897588
4739 1736 0.340302
19594 2925 0.825652
18845 4888 0.847645
11091 8066 0.907028
11952 929 0.982619
11598 8143 0.810519
11930 286 0.980127
14676 13182 0.312981
8689 16170 0.962517
7459 2357 0.902532
4130 1232 0.712923
10959 9454 0.433641
1841 26 0.38039
7213 3293 0.798913
72 10953 0.503723
10031 11170 0.514021
15750 13578 0.846802
3266 7375 0.689356
1388 10763 0.778637
15397 1927 0.60365
9099 3368 0.929846
8540 8472 0.0274515
10274 224 0.534594
5342 3916 0.887415
9515 2583 0.524975
8779 7395 0.609657
9434 3854 0.31184
9914 4963 0.597254
587 12089 0.738766
11494 19270 0.992119
5202 3471 0.977243
6199 10683 0.824943
8373 4398 0.286069
295 13933 0.480583
16037 19068 0.296302
7139 6803 0.639572
17880 2970 0.828633
7928 2621 0.384584
17691 8586 0.605078
7567 8235 0.374437
17563 12710 0.732727
12339 5895 0.894534
5124 10881 0.0698776
2364 1458 0.983668
2194 4203 0.768377
852 7446 0.103679
11244 6202 0.849217
10973 12177 0.563644
14447 1707 0.125903
3085 12891 0.0432322
4139 9389 0.633714
6541 927 0.181161
6973 10944 0.725224
5321 7634 0.894073
1528 11566 0.546056
2599 7507 0.0406727
613 16409 0.637925
9781 17915 0.0447404
9087 10783 0.675542
6711 13618 0.00158238
10423 7809 0.952441
5445 2215 0.200939
9389 383 0.494436
6095 15370 0.449693
16560 4249 0.520893
8257 489 0.690923
19780 15015 0.257604
13022 216 0.576283
12428 15001 0.287275
7011 5712 0.664571
4372 16938 0.0693973
4234 1548 0.421516
4533 5859 0.460559
5730 9939 0.427192
12425 6964 0.502596
11785 7292 0.373676
3961 14451 0.189927
5424 1221 0.831759
9797 5231 0.885758
7161 10803 0.74451
9799 5311 0.861438
8053 2850 0.480237
4592 10967 0.569289
473 16640 0.616954
11312 11127 0.182134
304 3571 0.573487
3778 9447 0.134821
14237 7590 0.718435
2597 2262 0.641496
9806 15936 0.416636
5726 9792 0.63955
2032 19769 0.712923
19523 2997 0.262502
9305 17098 0.76782
7228 1163 0.795844
17841 3875 0.709612
4614 2247 0.391632
19380 3627 0.588442
9065 19325 0.916714
10845 4992 0.532992
1798 18568 0.554218
16565 8993 0.300726
13009 6475 0.278239
6330 17637 0.364496
12734 18310 0.987517
3559 12173 0.746731
2408 965 0.180456
5429 2508 0.655394
9675 8054 0.737416
372 7071 0.0548732
3077 5593 0.905753
1135 4619 0.212057
11162 10390 0.919538
7597 11715 0.734237
18528 6939 0.501573
6042 2076 0.476716
5608 11300 0.760534
819 7522 0.596917
12600 18552 0.0522036
16266 11044 0.875639
10635 4144 0.98272
10092 14286 0.356121
7654 2017 0.991498
14824 15130 0.855692
14723 5089 0.0248342
18288 9273 0.672755
9095 762 0.32478
251 8823 0.884343
9971 3279 0.615335
11311 19628 0.414038
3754 6546 0.35997
16327 8717 0.404536
6636 19260 0.463262
7085 11698 0.467549
1615 7168 0.497619
16104 12190 0.40643
8252 4334 0.726135
6072 17046 0.40287
7374 14170 0.376795
6784 251 0.314711
12433 7366 0.476983
8762 9527 0.254207
14055 7556 0.949157
17725 7688 0.666026
2626 4373 0.0518953
9935 2599 0.707932
4209 5888 0.168227
9659 4603 0.643815
3097 795 0.0500056
7904 8427 0.126635
10002 9767 0.040903
794 14182 0.864475
6269 318 0.0868244
12719 5968 0.66514
4774 16099 0.700992
8123 17273 0.840268
10168 10912 0.488658
1332 4037 0.29271
19925 699 0.311177
19837 16654 0.737436
6585 13763 0.261385
11798 11415 0.438378
12348 1292 0.881034
2728 13967 0.710548
10029 1240 0.121026
3277 12244 0.555062
13721 18320 0.624943
19102 16475 0.901343
6729 13539 0.358599
2421 3783 0.357135
4055 5752 0.405844
16588 8852 0.718735
14501 9449 0.114999
15352 13069 0.0180217
10187 9844 0.625185
3439 1013 0.871503
15103 18094 0.450628
11515 1074 0.312929
1337 18060 0.659888
10094 9593 0.329877
11225 7356 0.485972
6691 7396 0.949405
5467 2486 0.951608
2976 19063 0.584986
894 1324 0.686368
1619 5688 0.0796076
11223 9886 0.244388
19286 2261 0.0370269
3464 2923 0.610706
8849 2682 0.713901
4100 7834 0.664682
7016 19468 0.165368
16919 1975 0.166045
9657 5844 0.104291
11645 8796 0.763746
19661 9931 0.86128
18604 10834 0.480031
9620 4099 0.100921
17712 1990 0.366077
3047 8638 0.0593337
3996 1057 0.119382
10505 3437 0.225502
2736 9356 0.48475
16564 10092 0.87834
14013 5094 0.221437
59 609 0.634406
4433 941 0.599694
5035 12617 0.024919
5147 2443 0.535956
10849 5023 0.109455
8658 4294 0.676867
1383 17340 0.82313
7080 4857 0.402148
10590 17338 0.379842
5971 8830 0.570205
12167 5034 0.231636
10029 6517 0.710221
8561 3035 0.847107
19970 4480 0.138504
465 7494 0.767676
4548 7539 0.516257
7496 9247 0.655886
8448 10324 0.639649
13057 5461 0.608981
6408 436 0.454144
4966 12012 0.12454
7918 12648 0.435007
12575 12097 0.703294
18304 16740 0.263129
6958 4681 0.382983
1411 17810 0.309607
8767 1902 0.973255
4691 7574 0.424233
6914 18033 0.685926
13461 9943 0.778392
7123 4617 0.560954
3608 1092 0.809301
4743 3232 0.742041
1919 18671 0.943116
3514 9774 0.0996016
4646 10344 0.0810091
17444 987 0.919529
5522 10678 0.666323
11475 19778 0.747436
9972 8198 0.741845
7024 12444 0.804898
8004 17314 0.0143222
1876 11671 0.313783
3038 13863 0.603352
8578 11021 0.669665
4623 11674 0.101165
2629 19075 0.980581
18715 11868 0.468928
5884 3339 0.596401
18396 14980 0.212889
2883 17482 0.222944
7912 1007 0.837595
9899 1945 0.444232
15234 13712 0.934865
3758 18288 0.330383
1725 12405 0.806958
6313 2817 0.0432322
230 3817 0.55122
17366 9439 0.335899
7421 5503 0.406068
11473 18187 0.292014
4094 3289 0.453674
5190 7215 0.729114
12118 15858 0.0727917
9908 8440 0.932424
11216 7661 0.422061
18712 16674 0.502872
12192 6036 0.909071
6664 10761 0.909061
11172 8172 0.470984
18758 554 0.0499703
1202 16411 0.822228
7045 9156 0.87682
1603 5345 0.557605
17121 680 0.452911
2891 2642 0.639261
5629 9148 0.184987
9742 8715 0.158261
12546 1182 0.477365
4265 9213 0.547635
6573 16745 0.294681
16169 605 0.094692
3029 17206 0.802192
3256 7324 0.499924
19256 5532 0.98961
2347 2839 0.671407
11280 19076 0.408136
8494 12460 0.400864
4009 8046 0.436596
8135 2673 0.324044
3588 9268 0.309917
18150 13961 0.248391
1438 19285 0.0243769
14589 9317 0.401725
9871 6881 0.0291653
16157 5899 0.914609
18244 1462 0.869198
3980 3704 0.389228
19316 15511 0.700095
2314 5416 0.48293
560 4864 0.747767
17707 9313 0.362259
7357 12623 0.980584
14734 13815 0.531847
779 514 0.557376
893 6057 0.988865
19820 12399 0.675706
9496 1891 0.0377594
11070 3714 0.41695
9474 18814 0.677239
64 6658 0.113306
8798 15806 0.297153
4469 754 0.746756
15198 4843 0.513047
711 14570 0.674677
7765 10760 0.558468
670 17155 0.671174
2388 513 0.547499
7322 14914 0.225635
4403 7516 0.65103
7107 15562 0.317013
2719 6735 0.875265
4841 4925 0.00334267
9831 10209 0.0996016
12756 15164 0.430312
6757 10494 0.863482
12898 1473 0.999998
15492 4193 0.489453
5342 5579 0.187597
17750 8539 0.447226
4908 10797 0.507075
9237 962 0.445418
14692 15891 0.12837
1391 12411 0.424453
7670 12151 0.485827
13047 8877 0.375394
4043 9602 0.427463
9013 141 0.353946
14403 16715 0.454757
9182 11183 0.716675
3977 4435 0.340332
5135 5271 0.401129
9397 990 0.715404
6144 12739 0.447662
9456 7296 0.767576
10110 1619 0.902688
4940 4980 0.623108
16304 783 0.543877
1761 17504 0.877749
5636 5668 0.457169
3894 1696 0.844971
3083 19851 0.852663
2755 2179 0.626446
15442 2060 0.21028
2708 3051 0.847336
11763 19588 0.0276907
3160 12728 0.618461
8582 2722 0.728779
17493 16254 0.389228
12077 5256 0.789914
6426 2028 0.601992
9184 18007 0.301088
10477 4635 0.969778
18035 11969 0.448695
8274 10120 0.562695
11766 6743 0.217033
19408 13889 0.98655
12003 19097 0.798246
3514 10811 0.996638
6636 2597 0.951148
4364 12864 0.101254
2867 17056 0.457353
4931 1075 0.694721
9234 12742 0.0639377
17691 8909 0.698251
14496 9555 0.997977
19678 5043 0.963152
12756 8780 0.090759
13789 17313 0.918902
1521 10927 0.0957938
14874 6894 0.554051
1931 12289 0.982968
8419 5010 0.488978
124 10856 0.844687
12935 13582 0.729057
9536 4852 0.33903
11957 2364 0.205962
726 17570 0.605272
17531 7170 0.539277
8108 19528 0.630603
12038 19801 0.344744
9997 4509 0.955971
9204 3107 0.160755
11470 9493 0.858015
4675 7218 0.12764
9436 2525 0.507539
4698 17879 0.690485
15061 366 0.434042
15685 4777 0.714297
10444 6111 0.255048
17579 12606 0.161221
17530 8249 0.590868
4140 17172 0.395399
7974 11850 0.946742
1914 3006 0.55852
9318 8106 0.900803
7486 4229 0.468792
5710 10641 0.914051
3240 18701 0.30423
6336 6273 0.877262
15468 7447 0.114475
3747 6410 0.187661
15231 10218 0.24994
2327 16357 0.464231
2148 9431 0.0283885
9431 8504 0.286923
19964 2298 0.760811
18437 12953 0.963788
8441 1423 0.424259
2003 13127 0.502376
2800 7036 0.132584
2317 17945 0.445513
9125 15469 0.847668
12184 16192 0.280291
6702 10239 0.337498
114 7375 0.369021
5057 12161 0.513814
1981 13923 0.366096
3648 11812 0.0267845
12288 14907 0.225558
2496 6657 0.543132
10182 17673 0.124074
11564 11368 0.675083
6455 5769 0.325928
3057 8627 0.534322
7002 17374 0.895793
576 10593 0.82133
1276 8960 0.780866
3756 13201 0.821137
748 19612 0.204214
12266 12439 0.83497
8818 11286 0.180456
1851 3074 0.458145
2539 6333 0.126203
11085 13835 0.108013
159 11328 0.758205
5645 6615 0.836608
1833 8735 0.481811
15196 12370 0.00200898
6414 5893 0.641623
2968 16596 0.796548
2603 1342 0.719753
4704 16231 0.94177
12758 62 0.585651
1448 8030 0.202458
9319 10343 0.414407
7122 5090 0.637014
6539 3825 0.730946
54 3439 0.206574
6397 7685 0.756805
6990 17555 0.0955463
9159 17656 0.458121
4698 8288 0.670376
10334 17039 0.519552
5578 3356 0.191155
1460 755 0.505315
9752 1863 0.132873
7860 7330 0.812906
6490 4429 0.464989
2180 8601 0.394391
17362 10266 0.802309
11426 10545 0.728967
7248 1631 0.985413
9659 10455 0.999632
1473 5967 0.279823
5852 15492 0.463467
4081 13746 0.690187
1252 9748 0.209547
18313 4705 0.631933
18373 19356 0.189681
1529 14167 0.815967
15618 15890 0.167965
11956 16212 0.846036
10278 4106 0.649843
2444 16046 0.449457
7725 6243 0.859574
6184 11682 0.410077
4484 1235 0.625911
14921 8546 0.828398
9525 11177 0.451443
300 2622 0.0553532
2517 5358 0.614893
11117 1350 0.447394
8063 2384 0.339111
666 6242 0.897389
9514 3861 0.781215
11575 1918 0.516256
913 7828 0.312373
9964 17794 0.0893883
7187 5689 0.0996016
670 12058 0.751142
734 8543 0.804584
2612 5292 0.333257
12085 10214 0.918004
4534 6786 0.402348
10509 15700 0.708586
12993 12320 0.730977
8142 8459 0.468823
1539 3300 0.0304006
7214 10203 0.880741
1240 11343 0.677913
7821 12948 0.767693
6846 9688 0.562992
9036 1048 0.367272
14044 5711 0.546322
4311 7324 0.901887
9395 4793 0.234005
12796 7323 0.0968713
7711 10951 0.124983
8276 12614 0.970883
4510 16371 0.158261
1744 18814 0.742934
12737 8884 0.517015
6006 8329 0.402803
11030 18684 0.366138
11562 19993 0.634429
10598 4212 0.384155
18816 3456 0.69597
9535 1715 0.13075
6067 11692 0.643076
5447 19380 0.643163
3738 11929 0.129754
17120 12620 0.409111
12233 2725 0.126944
12244 4352 0.428146
2919 1760 0.272675
890 312 0.93824
5807 12875 0.841305
4940 12719 0.910906
1310 814 0.538978
14150 5741 0.923594
8698 11620 0.979515
8235 6896 0.109242
2051 5592 0.985917
2734 14608 0.95401
2435 8772 0.828488
12987 845 0.115255
8589 5408 0.662456
1997 908 0.42262
594 2085 0.811825
14912 19070 0.806223
1795 6586 0.391608
6579 14838 0.445759
3149 15748 0.810288
8386 8876 0.2918
5955 845 0.513043
10834 5821 0.217425
1491 4867 0.76231
2501 6943 0.1196
14141 8193 0.507378
302 9587 0.457442
16352 8756 0.637605
5596 13626 0.776974
6269 16398 0.0637315
3150 8716 0.240068
19521 6869 0.314145
9316 17834 0.692988
7237 1170 0.513527
4231 1997 0.470706
12047 12384 0.0627407
7858 14879 0.721717
5982 7994 0.0218909
10453 19889 0.201929
14329 6935 0.632868
4453 3153 0.10525
1817 2270 0.0413211
1557 15879 0.942966
18849 7555 0.0754074
9407 2278 0.877262
17456 11274 0.301162
2076 6107 0.153261
10827 5592 0.682676
9332 8054 0.528865
11839 13219 0.320307
4997 12110 0.0426316
12583 4654 0.234787
8081 4822 0.588656
15790 3781 0.373213
2148 2711 0.481474
8385 1118 0.181837
16946 1171 0.701806
87 5537 0.595707
10589 13391 0.938298
5655 8607 0.119504
15317 3004 0.959128
8088 6193 0.987499
19783 2514 0.972505
2009 338 0.892213
15776 12216 0.827197
8562 14682 0.742015
13044 18441 0.671992
19986 7944 0.709288
5578 12179 0.61926
15736 4549 0.887403
10999 2029 0.868775
2709 15003 0.845301
9436 19130 0.0506538
3152 181 0.537258
8009 6808 0.940553
786 3442 0.607052
11185 9002 0.120184
19533 6614 0.883448
16826 4228 0.921495
19909 1917 0.418555
10629 14800 0.00292549
1485 7952 0.797298
383 15146 0.283953
19173 1042 0.314943
16133 19875 0.300752
16 12111 0.0738312
6232 6288 0.870966
12217 470 0.975077
5609 209 0.918781
16600 5022 0.205912
5969 2486 0.540005
4871 4243 0.239826
6504 8821 0.672647
4551 5802 0.373319
9979 7023 0.471475
6440 5779 0.719571
12768 6954 0.710071
4680 9772 0.762838
3022 10127 0.873784
10650 9684 0.57819
9012 19177 0.661816
12612 5292 0.1391
19023 10639 0.309908
9331 4526 0.622053
13629 6584 0.584726
4639 12519 0.00968372
10586 1642 0.126558
10230 52 0.252657
5132 488 0.20776
12744 15255 0.88401
16846 1688 0.820977
4454 1153 0.509255
18077 19375 0.691643
19749 6659 0.642331
10834 4728 0.516403
9990 8843 0.105606
7430 7662 0.970681
1804 14756 0.389546
1491 3285 0.261446
3177 17969 0.825205
14976 16497 0.279942
17186 4703 0.735632
6018 5558 0.568286
6262 8146 0.495188
4808 1770 0.260474
18648 19843 0.0489414
15390 12779 0.879474
1334 7139 0.795548
17860 9726 0.613053
3625 9084 0.0358201
11645 18259 0.792575
7813 16476 0.101865
15350 1832 0.465194
4471 8192 0.0567247
3094 3242 0.26484
9852 10080 0.616169
12481 19674 0.482379
9192 19011 0.0284005
6914 14481 0.0505891
7138 9586 0.86829
4832 10705 0.646561
8459 10625 0.969593
7257 13627 0.787393
12066 10000 0.153754
7949 10649 0.40439
7023 10551 0.192982
19515 19585 0.873952
17221 8471 0.772771
12605 5583 0.888069
14482 5136 0.814983
15989 1317 0.51282
10167 17654 0.983837
10416 16944 0.899254
16365 4530 0.579433
17444 6074 0.346018
158 795 0.286995
1687 973 0.241931
546 4313 0.765138
4685 8581 0.544224
9578 14503 0.998991
7839 1530 0.747299
10614 12603 0.138277
14884 6822 0.251942
8105 5449 0.332028
3163 1918 0.280692
5172 2987 0.0268828
5858 11818 0.653492
5379 8070 0.159196
17444 4219 0.659915
2320 11960 0.701266
5782 19721 0.0462887
2160 6571 0.987933
7720 7591 0.278591
3720 6179 0.969823
12830 7636 0.658145
7512 8307 0.393907
19760 3720 0.958968
5538 17612 0.930967
5575 18853 0.604028
1443 14226 0.607643
13145 6206 0.542835
11841 19091 0.39552
2706 5868 0.245685
1563 3412 0.142552
1513 553 0.521069
3187 12588 0.617751
5861 10965 0.369464
7867 791 0.0151878
17420 5038 0.231385
2321 17307 0.809102
7097 923 0.686841
11775 9565 0.591583
6513 5934 0.335672
1440 18 0.568984
16042 4231 0.505315
9687 1619 0.964857
18661 10573 0.293401
409 16484 0.192002
10272 4786 0.19104
12408 4537 0.193289
9652 11640 0.32802
13864 4077 0.564724
5566 890 0.665149
18679 13535 0.603519
10888 264 0.613618
6344 3253 0.559097
13031 4329 0.423252
11362 6763 0.3144
7193 2898 0.181823
13189 8600 0.656891
9301 13858 0.289708
9340 1461 0.862626
9615 2220 0.37547
1888 6773 0.912842
11877 3635 0.128153
13144 287 0.68545
11116 1142 0.511181
2689 5633 0.283457
12046 4952 0.468511
9154 13270 0.76651
12290 3991 0.23726
12632 7003 0.568935
3561 16011 0.908051
13020 5987 0.731988
4417 18460 0.553507
9845 16225 0.478592
12076 10142 0.837984
431 12597 0.586848
15138 16292 0.384939
998 10146 0.497259
11199 7279 0.334845
8098 13855 0.058622
15179 5258 0.227044
6500 9967 0.251063
12535 6826 0.607889
4500 7541 0.494857
9948 11862 0.0739036
4705 2787 0.444977
7880 3517 0.980659
8606 10944 0.175353
8208 2636 0.684064
12601 2312 0.727582
12274 144 0.792169
3808 4035 0.411348
5544 16885 0.874171
6670 11808 0.210942
10818 17193 0.798959
943 458 0.855089
11211 10520 0.434024
633 10521 0.68112
19694 3144 0.472399
14336 6305 0.826015
8191 19605 0.188208
1905 10360 0.474653
15406 9712 0.711281
1318 12661 0.483148
4011 12695 0.950419
4086 5989 0.363361
2839 1888 0.564731
8655 2148 0.940942
19580 16946 0.712305
17443 7617 0.980584
6593 9900 0.292487
5558 6862 0.0601622
16915 7775 0.805384
6479 1004 0.294308
12118 13309 0.519552
14311 6574 0.915457
19964 6831 0.556203
9087 12316 0.415926
8999 9917 0.986624
6923 1813 0.862745
1832 6758 0.157187
5966 3191 0.248391
17076 9092 0.540698
17616 19298 0.572993
8014 16438 0.651552
3015 8092 0.653711
13165 9782 0.693245
14380 11599 0.393275
12048 16682 0.260291
13826 6890 0.405322
1821 7857 0.639094
11394 6257 0.109734
16052 12471 0.717096
9000 7929 0.0260195
249 1568 0.244661
1254 2920 0.538831
15552 15620 0.439085
18445 15205 0.359275
18003 11072 0.171784
11584 876 0.811826
7437 11351 0.592002
4913 1620 0.977298
295 2642 0.315086
8856 9161 0.000977269
7937 2507 0.930396
5319 10699 0.666323
7147 1602 0.586716
383 9041 0.361799
10750 7758 0.736746
10680 2702 0.141791
2185 2716 0.42366
6725 17726 0.217378
276 4491 0.549641
15218 15947 0.734762
16957 16352 0.113319
9156 11953 0.696202
9272 10144 0.591922
623 511 0.110016
4090 19270 0.610514
8643 6930 0.719753
1528 11199 0.538161
15044 11388 0.573773
9854 3632 0.0503121
11716 7402 0.840116
14164 8386 0.324693
8835 451 0.0157038
1090 4158 0.900168
2724 5713 0.570579
9357 6792 0.883877
5568 6256 0.737915
7988 10406 0.510881
15736 6204 0.0562434
4883 19445 0.501356
11872 13266 0.462861
7588 5332 0.788773
6549 3787 0.512365
14026 11021 0.666177
6799 10630 0.380494
14260 8607 0.277675
4624 4221 0.326995
6222 10165 0.929248
10820 3129 0.763639
2250 3865 0.989834
4982 5505 0.217378
9276 9873 0.658977
10623 15586 0.734399
9019 9716 0.00366127
15218 19305 0.399747
15685 4204 0.6138
15345 14124 0.804919
9438 5591 0.766726
1213 9673 0.574138
6210 452 0.437946
18148 12414 0.172759
7880 6817 0.80609
5045 11932 0.872361
2545 13275 0.661743
12755 17524 0.971791
11911 5226 0.218426
112 6047 0.0699105
1897 1287 0.965761
4804 719 0.107405
18731 7120 0.719574
3422 18789 0.744079
6949 11978 0.158299
12926 1993 0.563003
10443 8645 0.862796
356 12809 0.334608
6128 16713 0.749018
12488 4759 0.0252448
11422 2177 0.679679
17002 12144 0.770963
16282 1840 0.999018
4183 14558 0.959696
12615 14682 0.8375
2489 3098 0.643407
9408 18389 0.868285
12756 12166 0.947109
12516 2602 0.877898
5704 19908 0.609306
10278 151 0.0474422
8151 5262 0.916966
10403 8996 0.303221
8950 3229 0.0583859
2364 3073 0.498077
3189 1750 0.651833
7490 12669 0.599385
9882 10981 0.681053
13062 17776 0.262502
10901 6478 0.857024
14108 10494 0.8101
12062 14348 0.750006
8935 9938 0.297427
2049 10654 0.428645
10614 10066 0.460582
9203 18720 0.279343
5802 7843 0.369999
1159 13754 0.174274
3539 8608 0.198217
8916 13404 0.128998
7913 18258 0.735617
3513 8632 0.620475
13127 4513 0.191842
9181 6632 0.0944115
19769 18968 0.348899
1608 9073 0.904263
544 10628 0.126645
5285 19621 0.623417
604 3457 0.760512
6534 17774 0.134749
17544 18833 0.614471
2020 2948 0.976799
9569 9323 0.786002
8989 1096 0.950409
14002 3098 0.360485
11495 8861 0.658207
9253 4411 0.864459
3072 6892 0.215599
10784 6987 0.960513
18003 3630 0.394352
122 18337 0.414038
12786 10209 0.799426
17779 5444 0.334026
956 2194 0.126019
14813 242 0.467862
4280 7430 0.955365
7375 3746 0.792312
2985 14154 0.132164
9590 6836 0.959696
1016 1009 0.45745
19503 4172 0.970292
7625 11758 0.88985
4139 1356 0.525486
9664 1771 0.661674
6326 7863 0.388612
12150 1224 0.146285
3846 12972 0.153506
10427 6967 0.0314251
1785 15481 0.770584
6848 19193 0.261385
14535 8443 0.842531
8104 12536 0.382458
4748 360 0.700792
1882 9727 0.565846
7628 10565 0.926145
10180 14459 0.0184206
2776 18276 0.106467
12708 3045 0.00737061
477 13980 0.99157
6771 7919 0.872229
3619 6074 0.852772
5515 8647 0.428841
12320 352 0.865813
1996 1525 0.735474
4280 2989 0.126041
8311 4971 0.146928
6164 11750 0.132985
11713 3287 0.369595
2037 11970 0.995672
19124 917 0.0132385
19343 10202 0.191593
13320 6318 0.512685
18263 2917 0.813348
8701 8118 0.863327
6113 500 0.701504
19252 16330 0.519584
622 9647 0.678656
10232 7016 0.334423
985 10121 0.511537
7368 10536 0.857033
3671 7263 0.145008
5060 17856 0.714837
10074 8590 0.337505
3461 17596 0.542388
12306 7269 0.226375
9137 17201 0.566231
12511 3089 0.54594
7878 5447 0.199948
7806 1993 0.0644972
11066 943 0.453727
6529 3165 0.212109
17672 8514 0.703561
3262 4877 0.894061
17008 13936 0.22464
360 12106 0.894296
15433 7024 0.140885
11305 14163 0.707795
12253 9002 0.155106
8891 8423 0.896682
13233 2158 0.849643
7288 9848 0.634412
2191 10266 0.337145
19762 11695 0.88225
14499 3646 0.301298
6068 11743 0.984926
10848 3536 0.848082
1081 17060 0.834594
6799 12214 0.28018
17690 10497 0.29886
6818 11897 0.206409
8944 1720 0.418089
14204 11702 0.0166074
240 4004 0.811397
3090 6072 0.777846
15561 16210 0.70871
12402 4929 0.435227
11498 1431 0.99002
10493 12716 0.156073
17142 13974 0.998205
4290 5209 0.744081
19896 12006 0.51306
10088 289 0.367591
2524 18722 0.278904
19013 729 0.605078
3975 1772 0.543832
899 15897 0.0021123
1077 14466 0.414711
173 4629 0.938094
595 10175 0.574226
2383 12984 0.990093
3414 13798 0.408441
1617 14031 0.261446
6709 6764 0.153261
6836 15087 0.0512454
8590 19890 0.188116
8616 5957 0.492369
16998 16222 0.633905
16982 9356 0.319794
9592 1244 0.885411
5833 19076 0.00415228
6155 4760 0.963754
59 11677 0.701774
702 5695 0.801855
2051 1200 0.726532
12147 880 0.318908
3778 16752 0.349141
1352 19564 0.461265
11190 11280 0.0549442
11 19101 0.719574
6412 1762 0.913781
1278 4441 0.356529
4014 9246 0.642168
937 18836 0.410123
9741 13353 0.897327
521 13959 0.306321
3229 4558 0.729103
8782 17867 0.205105
11359 4256 0.599572
11912 3633 0.715944
11269 3279 0.724522
9672 6524 0.977243
9350 16650 0.517941
1641 2247 0.725379
16165 9323 0.0604387
5033 13446 0.0843312
3069 3582 0.169307
11489 12683 0.699058
17206 9458 0.463013
6503 10269 0.562369
1394 5795 0.983304
8095 5128 0.610324
8227 8663 0.642331
18633 5308 0.55936
19311 12471 0.842104
15500 7351 0.77399
10138 5360 0.128458
10289 9715 0.675163
3049 3490 0.399541
2601 5396 0.419247
12568 12774 0.431497
5527 6075 0.637283
1964 15005 0.639024
4190 7021 0.170135
12863 18746 0.214822
7407 8217 0.713565
3300 7193 0.639956
12902 10571 0.383383
9116 622 0.944848
7259 9969 0.713659
11125 16531 0.99158
2058 19592 0.86728
2055 5290 0.711715
11600 7833 0.698861
5936 2450 0.293709
19154 726 0.749898
12998 19701 0.418955
12544 8277 0.0488739
8958 6915 0.0788033
7495 11992 0.0760963
19864 8707 0.116477
1814 12790 0.983986
10084 5885 0.548636
1973 7492 0.0869292
16235 2137 0.381414
10597 1143 0.00726772
11127 9544 0.125361
13615 6075 0.556167
2061 1247 0.314035
10850 3171 0.880222
18507 11428 0.593919
15446 11958 0.165166
15764 11593 0.548639
7748 6821 0.161633
6207 6092 0.397371
9080 9727 0.532181
11839 18485 0.0757505
4897 18992 0.899189
10021 12260 0.310317
11618 5286 0.991092
9502 13047 0.530716
1621 17195 0.789423
18416 2508 0.112944
13791 14002 0.723807
15623 5268 0.854075
264 15258 0.0752323
3300 10135 0.0962535
1571 4524 0.335992
14424 12449 0.82729
18325 3085 0.480953
7983 4624 0.237961
3891 9516 0.51356
7728 1556 0.441356
1127 8788 0.12984
18727 14849 0.170526
9934 10923 0.299007
11288 7371 0.297469
762 5590 0.501356
3333 4257 0.17964
6866 18714 0.605123
2032 14494 0.167419
4148 13485 0.677913
5167 18522 0.206177
9123 1054 0.851662
1462 11462 0.370264
12364 6483 0.715029
7716 6721 0.0589205
6471 12468 0.340812
2220 18421 0.849217
10779 15517 0.094804
2753 13858 0.883795
8044 4129 0.665125
11960 18928 0.716148
16958 816 0.877817
9942 3169 0.996459
19519 18042 0.0886898
9057 18144 0.902335
1479 16829 0.65245
9157 3465 0.848154
7963 16834 0.784299
11770 1480 0.178272
8073 905 0.801889
6849 10260 0.259969
18422 4540 0.569778
17307 11613 0.234732
2010 2630 0.718096
1246 9678 0.538246
3297 6687 0.809163
5438 8450 0.958721
10816 17505 0.598762
346 17405 0.00476089
6772 18966 0.727688
19099 6776 0.609827
11038 3116 0.166769
11926 1886 0.0479751
13323 15719 0.0352602
19081 8217 0.738483
9725 8378 0.204429
7661 17147 0.352681
12348 12269 0.627757
10512 3586 0.947712
2527 7239 0.737686
2214 8191 0.304488
19669 18119 0.0767142
7126 4348 0.0438731
3229 12791 0.259547
4835 7478 0.859533
6932 13378 0.614835
1910 10826 0.85384
6180 9725 0.378156
14122 740 0.391854
9977 14971 0.642801
2830 17109 0.301289
9306 8272 0.199355
2094 4107 0.3255
12759 10471 0.500649
716 15070 0.338715
13304 4064 0.42962
5586 5203 0.771079
14158 4700 0.113226
218 10918 0.154553
2380 10286 0.923156
6695 30 0.889676
18884 6858 0.841434
4985 8183 0.857081
5149 3235 0.491313
16305 1039 0.343278
2254 6385 0.0244914
8529 7351 0.541446
4319 5424 0.826829
5578 12587 0.759566
4537 7394 0.896881
16786 6444 0.437946
13207 2909 0.00333367
8649 8129 0.882364
1348 12425 0.0870444
5496 9868 0.298614
19637 2814 0.303295
8712 16716 0.0627065
4482 565 0.131984
9519 1655 0.994847
6332 15888 0.0183026
512 5496 0.300798
9854 3330 0.318666
536 4024 0.057025
4666 8731 3.66163e-05
11000 6736 0.440924
10834 10007 0.897998
488 13399 0.25572
13535 10817 0.415926
1780 6983 0.175248
8420 3056 0.315476
13493 17226 0.825208
13398 6048 0.310333
11274 19345 0.348665
5813 12390 0.15659
2887 5590 0.583555
3654 9473 0.48362
6716 11670 0.545607
18543 3049 0.322125
7468 798 0.111322
17366 2031 0.473025
9131 8644 0.746064
2928 3478 0.573687
3193 8640 0.814553
7195 13854 0.604893
2944 13433 0.226371
2957 1447 0.6746
12183 1571 0.104499
3287 984 0.148869
579 7107 0.184987
4671 1742 0.937266
19593 8128 0.670734
7680 10893 0.653162
7401 6125 0.0381859
13752 18153 0.537689
8174 14950 0.191966
6368 10764 0.443149
4037 2997 0.4581
14889 4810 0.150556
4484 4657 0.893765
18057 18510 0.250175
4839 11396 0.996099
8869 1589 0.491241
1127 8877 0.611776
6938 18691 0.331754
5963 5833 0.268481
5669 9571 0.919207
8939 2522 0.180721
11138 461 0.6138
11633 6655 0.933287
12866 8049 0.821008
7187 3763 0.436531
5309 3672 0.764451
17411 3542 0.376339
10320 11991 0.917951
9075 15432 0.231511
11462 12089 0.606637
5889 18568 0.70421
16501 12779 0.786858
16242 17533 0.199749
45 6164 0.288525
561 7610 0.0228642
9323 2881 0.680191
6487 5746 0.0937114
1137 1437 0.271777
10469 6894 0.488186
7340 9544 0.990608
7864 15077 0.419271
8962 14673 0.796721
3161 3199 0.0121958
2613 490 0.929719
18816 3987 0.16642
6047 5091 0.768033
6595 6062 0.475714
13492 11909 0.831748
11929 16633 0.400874
11035 7682 0.86829
5753 5945 0.442101
17966 6162 0.71758
18628 10910 0.328784
18768 9512 0.524397
17716 19297 0.0450538
12472 5903 0.77946
1426 19343 0.801758
5715 5010 0.139923
15992 15508 0.611032
10688 6059 0.371084
6625 1923 0.190438
10977 4434 0.00996652
4244 7183 0.00894472
5441 15505 0.317988
16815 17548 0.91686
18036 17861 0.795671
2460 3170 0.312947
9978 2157 0.233676
13060 10518 0.364508
18756 3179 0.0954853
28 2075 0.229475
10259 11110 0.664503
15139 3826 0.898956
15700 7812 0.74392
787 12806 0.437217
1608 17911 0.638817
7189 6867 0.164734
4958 6937 0.0305164
10359 4562 0.340044
7242 8820 0.986516
11979 1958 0.608175
10112 14858 0.528074
12721 1249 0.975292
18629 8796 0.474519
17834 7467 0.0500616
822 9724 0.943961
15405 8515 0.824433
12933 14380 0.0881929
12968 3990 0.702003
1741 10498 0.885466
17153 6647 0.814861
7301 2981 0.915722
7775 2505 0.805972
11934 11829 0.457897
14486 1971 0.978068
8706 19633 0.603709
1989 17839 0.0442916
12741 5447 0.293758
4631 15789 0.769231
4542 7609 0.389361
10718 12844 0.0395261
12083 13695 0.267269
13304 8207 0.692562
1045 6788 0.207843
15280 2482 0.787213
2404 9566 0.130627
14853 9122 0.51488
7646 3063 0.989418
7483 7663 0.837801
7876 15706 0.0112347
10607 14950 0.207234
7987 3859 0.232731
14701 8627 0.371069
12671 5354 0.186975
435 4767 0.639219
5823 19508 0.369205
17870 9151 0.702073
17863 4250 0.351431
11136 4722 0.242352
187 9978 0.294899
11037 741 0.64402
7298 17009 0.0838066
9181 4643 0.474082
12557 12001 0.865027
14984 1244 0.258224
2248 2887 0.0936804
4647 7580 0.763055
6394 4076 0.0232846
18994 3599 0.431271
8229 2587 0.364649
9482 15344 0.845097
2469 18129 0.127421
9736 2341 0.418051
2547 19310 0.0550897
2333 17917 0.389361
4697 3992 0.588583
18563 9075 0.944848
4718 11068 0.681862
7562 5373 0.540849
4949 4252 0.958972
7369 11729 0.111842
4744 9251 0.525
12629 15077 0.404694
11706 9612 0.821851
8600 12044 0.977588
15815 19841 0.618553
7374 9980 0.079422
8984 9630 0.98756
740 13318 0.251171
4299 3686 0.447334
6740 5752 0.613026
15174 11496 0.0872572
12283 8616 0.802918
3570 9402 0.0112339
13644 7292 0.0593932
4582 9142 0.00861752
3044 5448 0.0711664
1500 4776 0.942017
5042 2619 0.170611
6526 78 0.556244
3841 14370 0.681057
1226 8871 0.588543
3811 6108 0.76472
6875 5157 0.564544
11056 10040 0.701334
18433 17873 0.625121
2300 4819 0.657797
2326 13280 0.295466
535 18384 0.00894472
16421 10878 0.864975
17263 12683 0.759438
1326 6588 0.88373
6965 16939 0.109047
11030 2022 0.628717
6245 10637 0.6746
18750 5232 0.352002
5098 3133 0.0820335
2392 2097 0.743019
2706 449 0.0233137
13406 8760 0.66381
4563 8983 0.137588
640 11371 0.892696
6258 154 0.324917
2274 17948 0.363248
6525 4991 0.317779
4239 5711 0.246857
6852 16381 0.614893
7009 2036 0.224531
1583 1990 0.670997
11579 4462 0.950294
3638 10556 0.127826
15944 8739 0.426671
8450 3756 0.509385
2837 4947 0.493661
17752 4527 0.650273
7172 7626 0.534066
13574 5051 0.140373
9622 16505 0.346341
12968 17241 0.561313
2932 2668 0.744032
16945 11914 0.950728
480 14733 0.992611
16330 1052 0.667896
374 4594 0.653848
5460 6836 0.199455
5978 9765 0.922874
4588 5307 0.889978
4798 8491 0.549174
13869 18502 0.241194
12699 2175 0.648648
1649 12409 0.906944
8249 4977 0.889941
4408 4312 0.628895
15043 18813 0.343495
15624 4887 0.472208
16951 16947 0.853188
12359 2640 0.102829
6775 136 0.0891786
9889 15926 0.138455
679 302 0.10789
2513 5214 0.0542653
15105 1704 0.736624
12493 9968 0.222288
10735 5966 0.0103847
10666 3354 0.103653
11116 14993 0.599408
6408 4781 0.80854
17951 102 0.759889
8140 9014 0.246662
6526 6695 0.142162
1973 7325 0.220164
3749 10790 0.277901
11735 5659 0.840542
10283 13144 0.196836
2870 6155 0.305756
3343 19864 0.258537
6669 10974 0.0791005
19492 13603 0.343527
9122 19724 0.749433
11962 18270 0.485317
2829 10452 0.560828
11268 17618 0.818931
19978 1985 0.479638
10676 17546 0.72477
13562 5034 0.347248
3034 12109 0.269505
19258 2565 0.390081
5151 9904 0.299572
8361 4034 0.144835
11901 3466 0.341805
7833 17229 0.667629
12021 5685 0.386765
7859 11095 0.7815
10699 7146 0.406423
13297 5256 0.839418
12688 10918 0.743268
5902 10902 0.361391
17778 1076 0.934858
2253 5761 0.435175
7073 3240 0.564115
10627 7742 0.637985
4313 5791 0.394352
10690 11904 0.597797
1942 6798 0.747703
861 8991 0.636063
230 10767 0.86312
15510 9360 0.853982
10426 16102 0.875283
6639 13163 0.146885
7137 16948 0.639739
18699 7185 0.209589
7014 18574 0.106467
8385 10017 0.764023
8783 4940 0.997049
5316 6295 0.623843
6780 8077 0.559943
5501 7785 0.389361
10188 112 0.763696
19835 9727 0.030978
8387 6405 0.378975
8794 16525 0.132314
19939 9357 0.104059
9741 6926 0.697365
13474 1713 0.864337
4782 7653 0.749155
6854 18133 0.5769
15343 10372 0.787778
1276 6381 0.108485
11621 18899 0.907193
10046 487 0.676471
6995 5707 0.281718
9786 6719 0.902626
9039 11612 0.514253
7403 6586 0.615727
1428 16605 0.13403
3384 7976 0.851165
10964 3091 0.658947
6219 6885 0.828655
11062 509 0.124321
9144 11359 0.624215
12615 6062 0.839722
5422 4183 0.866819
19092 14492 0.653879
4411 17139 0.378627
6735 16241 0.0721077
5313 7235 0.804299
10738 18767 0.806079
9013 7288 0.475568
8874 8441 0.691792
1749 3740 0.497454
634 5946 0.82934
7168 4878 0.93099
9644 14309 0.649077
5850 14150 0.521027
17753 15522 0.336763
8153 9820 0.837366
3976 15857 0.746737
11180 14664 0.596707
11887 32 0.141741
5833 18885 0.069988
14918 11169 0.490131
7365 16721 0.212287
10969 7197 0.309688
1827 10466 0.0594312
9290 2779 0.15774
6190 3407 0.0134003
11606 8673 0.645376
5370 2290 0.870732
9194 3104 0.709278
4661 8236 0.635915
12361 4464 0.427587
6483 6243 0.228339
4288 8025 0.0518696
1502 10485 0.506061
1025 1888 0.169397
12968 4474 0.0932617
61 854 0.782404
2587 2603 0.850679
11486 12466 0.981056
9402 18028 0.854277
8529 8599 0.812536
17758 14085 0.600465
1457 12266 0.310893
5109 1660 0.143453
16720 9646 0.346233
4553 14513 0.644977
3108 2082 0.12198
6549 13650 0.106632
7859 5289 0.843645
1418 642 0.201456
12665 5306 0.506786
6868 6203 0.0999208
17825 13652 0.369306
5728 6283 0.915201
2199 6520 0.650068
9221 9562 0.595707
11391 2747 0.730771
321 18637 0.816223
8409 11782 0.512375
3984 10537 0.451135
727 198 0.866724
17618 11478 0.651552
12357 6536 0.491611
13482 11945 0.105121
553 12341 0.687173
3734 837 0.0642643
1028 4103 0.729623
10625 7623 0.114143
12084 6602 0.294141
10213 9426 0.22425
13114 6525 0.555195
18522 11048 0.841822
136 1691 0.225051
7620 19296 0.189735
7006 6197 0.0384474
13606 17873 0.42832
5741 19658 0.493966
905 3739 0.676367
5058 11025 0.683797
2896 1623 0.809906
1191 5296 0.626665
15986 6899 0.0350307
8998 12155 0.385104
7921 1612 0.302962
62 27 0.669623
8180 19409 0.147473
5743 17206 0.936314
12210 3936 0.131503
3400 6775 0.381414
9898 9428 0.390366
19747 4861 0.295851
13253 4842 0.949469
17131 14629 0.00438774
2623 15281 0.877116
10184 17110 0.416632
8769 10252 0.380494
3915 12357 0.277609
4866 7439 0.23868
15500 9412 0.869289
19881 8248 0.744611
1987 8662 0.661985
17924 19796 0.652861
15645 17685 0.919814
11298 5836 0.897339
4767 12524 0.952353
2096 14243 0.442503
4744 11070 0.0749866
12548 11741 0.886497
5668 6925 0.98361
11140 1803 0.332161
1957 8014 0.433661
57 15886 0.558589
3436 10848 0.623887
7948 19983 0.526438
9655 6076 0.337516
13739 4339 0.734363
18844 6199 0.0623382
1421 8648 0.432217
2774 4872 0.904051
10219 17351 0.215509
12683 11537 0.593697
899 2356 0.263308
10370 3752 0.968359
14090 3563 0.599996
11944 10084 0.996711
11036 8401 0.485146
12603 4191 0.468671
11321 544 0.858624
12225 12407 0.689286
16670 3336 0.0535486
5893 8745 0.476378
17573 16543 0.102884
7627 10780 0.291213
17724 7117 0.352026
17586 6546 0.609764
19755 13111 0.986147
423 9670 0.140138
6000 18869 0.2459
7775 10296 0.315602
11694 2870 0.305287
4608 8580 0.389878
8447 22 0.373715
13225 13278 0.922626
13109 16776 0.538714
3703 911 0.975582
12614 2768 0.964271
2634 1806 0.444724
13356 5395 0.376775
9269 808 0.0241571
5274 6318 0.305268
15619 10781 0.573095
7913 18061 0.0762382
18514 6649 0.240491
2894 14409 0.86989
16742 822 0.418568
18230 6551 0.787355
8855 11920 0.226895
6415 10223 0.403005
18852 15951 0.781619
9480 19725 0.772066
9159 2800 0.903912
4382 17302 0.0121724
17818 5470 0.875265
13000 19077 0.949867
2166 10238 0.574226
18469 6260 0.773976
4431 7658 0.570766
4983 10101 0.0947976
6681 5353 0.338812
10048 3402 0.0384474
8500 100 0.653623
1910 19225 0.369022
6510 6425 0.0782335
6945 4861 0.666502
4382 11137 0.69771
3679 9615 0.472399
17375 5961 0.218338
15063 8709 0.333947
9768 5151 0.509987
8147 2515 0.273645
11261 7845 0.418936
695 14716 0.792402
8342 10824 0.14478
5886 10276 0.788327
1219 12744 0.584336
13745 643 0.405448
1553 19791 0.616476
3332 10485 0.511181
19418 14655 0.452008
16580 8143 0.723229
2755 12154 0.105927
5120 9061 0.0752323
14802 5909 0.846193
3683 10779 0.116747
17986 4594 0.310896
12811 4226 0.103653
19955 3748 0.0317469
17145 546 0.886885
9525 17255 0.814847
14900 17580 0.715218
2784 4479 0.693129
9251 12722 0.260316
11137 260 0.331985
7929 6217 0.245635
2251 19886 0.171486
3340 3253 0.0323083
17458 15705 0.541125
11843 16186 0.917202
12463 19373 0.112455
17489 3749 0.999002
12037 864 0.577743
9560 11133 0.837133
8133 16268 0.300077
11648 13800 0.107815
806 154 0.844568
10011 16930 0.981722
13095 13191 0.595791
19197 9735 0.189197
11698 4357 0.939593
15716 263 0.744534
5296 12628 0.845796
8323 1260 0.657928
14583 8460 0.0644972
12416 3294 0.361445
12268 15649 0.730727
18967 11031 0.868434
26 2461 0.570321
9819 5786 0.746074
550 8965 0.738938
10822 289 0.863422
4389 12513 0.328399
8077 16590 0.745067
5350 8746 0.110376
6216 10759 0.72607
4329 14706 0.5497
6109 4646 0.841734
10810 10826 0.8092
9221 18045 0.283875
1078 7772 0.496927
10670 1494 0.299475
16539 6905 0.836499
2986 16924 0.572155
8128 7697 0.271808
4767 7900 0.343937
10031 3771 0.862738
7348 386 0.846055
10808 3173 0.486485
18457 6799 0.422909
16473 4229 0.527232
2407 3552 0.0956553
7942 16976 0.443895
2643 7411 0.0510312
14305 7937 0.150577
2040 16247 0.17999
7225 9652 0.405552
8660 11260 0.853435
19691 1473 0.328606
8908 8660 0.878138
4727 17518 0.727455
6363 2037 0.651552
6382 5541 0.919376
10315 278 0.494036
19416 3384 0.709856
10898 11116 0.626053
19102 18908 0.129174
7730 19545 0.952628
4456 361 0.793955
7171 4758 0.0941864
18831 14236 0.902828
6501 18560 0.661003
2645 19596 0.277451
10849 17839 0.56449
9504 9369 0.488695
16427 13103 0.413642
18041 4578 0.33514
4597 4954 0.461574
9486 3731 0.686514
7617 5800 0.956288
6477 7458 0.932819
2071 6551 0.735541
7061 4110 0.107342
12143 19519 0.849096
11001 1244 0.26436
5413 8664 0.709284
10207 19146 0.168914
5020 2646 0.526226
3611 9845 0.390825
12423 6202 0.903909
10333 2172 0.752703
6152 5672 0.440381
449 5969 0.665853
2003 19166 0.535961
13773 12452 0.388169
17387 9396 0.814263
17638 15520 0.748601
14869 8167 0.735193
2540 4402 0.0422026
19106 6925 0.304026
6367 16125 0.963966
6697 12585 0.461574
8068 8523 0.816591
3839 13065 0.938801
8983 1193 0.136315
10883 9045 0.0339107
15228 3448 0.513033
439 7788 0.221696
12943 2689 0.774017
12195 1297 0.58969
11849 12633 0.394919
19647 10210 0.809201
3092 11516 0.255396
4034 11977 0.680355
1454 19213 0.438222
18317 2999 0.195179
4447 1073 0.263234
6863 6806 0.442617
12356 3719 0.478322
19988 2161 0.760348
14848 4663 0.291951
7433 12724 0.284402
6526 1908 0.767042
16803 6348 0.651789
1106 7892 0.883407
7133 18159 0.12694
8758 9694 0.594064
7884 11820 0.663628
879 4755 0.14853
6586 10259 0.47231
4969 13056 0.202987
18633 12720 0.0213401
18159 10454 0.700194
776 9929 0.813154
18538 9639 0.886494
9598 8520 0.806054
11674 1609 0.419733
19263 9318 0.840227
12439 9394 0.844815
17045 16777 0.375508
9536 6733 0.138075
6376 1558 0.412572
7238 12579 0.423408
19682 9538 0.741895
10829 7703 0.898253
11133 19400 0.826255
7346 8796 0.243713
15652 7730 0.542437
2969 5584 0.430449
7184 18811 0.589757
6099 11032 0.166578
356 2587 0.208914
6925 1145 0.023074
16425 3208 0.916668
13916 17753 0.232733
5214 19267 0.29402
8441 11286 0.255944
9127 2436 0.913662
14803 12317 0.95576
10791 11500 0.221405
1425 9097 0.696767
7694 14859 0.911353
1288 6996 0.797684
8186 33 0.0884515
4276 4240 0.816591
18013 2517 0.135648
9072 8883 0.814358
9704 17055 0.0109591
13151 3414 0.255329
12269 10788 0.330862
17274 9162 0.310582
9329 2348 0.0970298
1931 13605 0.470215
6126 6992 0.0261468
19232 8237 0.796562
1144 9532 0.984657
11918 10889 0.485381
4241 5545 0.607698
2686 19074 0.930973
5928 642 0.623532
14871 8683 0.179693
10476 12159 0.180659
16071 577 0.932012
6617 5820 0.329877
8913 15678 0.331373
11918 2531 0.670668
5943 7739 0.479975
7062 5409 0.489075
2689 13070 0.143074
18803 10348 0.438104
4364 1458 0.00449504
6274 852 0.0966578
2380 6525 0.570804
6640 1602 0.169846
15470 5825 0.125959
3790 11155 0.0400624
19859 7109 0.431115
7415 11907 0.895014
14354 2885 0.966802
8529 6864 0.928754
2571 4898 0.519715
9055 6683 0.68421
9394 13244 0.911738
12455 15222 0.10431
18083 1682 0.118841
7965 19103 0.173712
10471 4530 0.211398
6805 14621 0.515875
11622 6970 0.635765
6514 8485 0.533139
6298 12211 0.225034
4623 3198 0.514194
16437 1614 0.187775
10005 11566 0.751192
11056 19062 0.134511
2553 6543 0.0308039
9896 11942 0.0954044
11877 18339 0.982847
152 11250 0.405977
3815 5821 0.759291
19168 18110 0.274316
10306 9393 0.831619
2657 11654 0.672818
19121 3410 0.909527
5912 2556 0.102575
5766 19044 0.733842
18989 13612 0.317744
18282 9864 0.0346886
1853 16215 0.208526
2365 7240 0.0525872
15331 7614 0.0671847
11686 919 0.634784
15738 3974 0.813855
13296 18480 0.71588
16473 8583 0.170095
14863 4638 0.467813
1724 12222 0.625251
5844 19892 0.343054
8855 521 0.632785
6978 12034 0.207632
12815 8362 0.109351
8656 2252 0.718934
12468 3300 0.712512
19324 9130 0.474037
1920 949 0.595131
9756 9718 0.440179
2491 7757 0.644386
1261 2972 0.861466
15814 11677 0.208657
15009 9403 0.0753067
10915 5114 0.294855
4452 17393 0.870933
7370 6279 0.245568
10240 11752 0.679429
1626 9743 0.168754
17369 230 0.544667
10139 3983 0.126259
2459 2303 0.146398
11231 7825 0.207753
10832 3419 0.0180217
11398 10218 0.921331
5675 3646 0.74423
839 9924 0.134331
4879 7593 0.545117
17019 10894 0.0214998
11712 10524 0.293276
2483 10546 0.460898
6916 15180 0.95928
9149 4167 0.208764
11493 5237 0.665327
8893 5118 0.583796
8165 8916 0.0285483
10667 6523 0.831387
4742 18032 0.441379
262 18882 0.433903
5115 19359 0.921087
9708 4922 0.782485
2583 10832 0.208882
6247 5745 0.536366
19603 10254 0.338933
18895 11847 0.399456
10746 5125 0.952658
19949 7975 0.128944
19406 18339 0.614422
5881 12331 0.134817
19127 18785 0.21241
2369 8900 0.291148
8002 14600 0.106962
16182 2314 0.940628
854 11350 0.152248
3778 12595 0.491574
14924 18146 0.416771
12635 12622 0.466929
2287 3281 0.0129113
9035 10173 0.0464554
7255 7923 0.777814
12441 9645 0.966653
4915 10270 0.384155
16054 589 0.378473
2058 10026 0.00112516
14423 18734 0.643267
5782 18544 0.440062
5765 7094 0.280331
18771 9741 0.737686
15802 6775 0.48622
3712 6344 0.279377
1775 19512 0.790159
11538 4969 0.16477
14695 3116 0.376228
10373 10765 0.818194
10224 5665 0.162035
17316 16754 0.792743
12709 19361 0.40869
14701 1220 0.917089
17302 16504 0.663382
9629 5369 0.0783785
17747 3317 0.274754
17630 13531 0.658746
10829 2027 0.669917
19932 10500 0.510523
12789 2136 0.8799
18255 8595 0.64015
15433 18285 0.509255
17765 1943 0.981391
11241 5425 0.558311
6186 3856 0.487425
3949 2355 0.785714
9927 2945 0.679733
9988 3852 0.923156
16032 5083 0.274414
7820 11590 0.475124
7987 3043 0.389566
5193 14364 0.498912
16044 11574 0.669486
3693 17813 0.511257
12711 14180 0.335125
7273 11567 0.259865
6250 1624 0.00198999
356 4460 0.58755
18320 1621 0.59108
15301 4931 0.449457
9003 9940 0.0397207
11238 6421 0.809163
19502 18204 0.541682
6994 6552 0.104522
19868 6886 0.148445
11657 702 0.880386
515 4398 0.802572
1053 12106 0.804488
2511 9447 0.161221
16855 11765 0.962013
9778 11771 0.926065
5795 372 0.594362
542 4911 0.879569
10477 11077 0.462886
12616 9627 0.667657
5501 14218 0.529159
18590 7047 0.500819
885 10214 0.114803
1565 147 0.132553
9446 2496 0.974511
18030 15909 0.235841
85 1354 0.0356994
14511 5278 0.905424
883 918 0.17564
11196 3436 0.772513
10267 1835 0.748747
10240 5693 0.239841
2723 6533 0.0270876
6339 13323 0.543939
17989 18357 0.48105
6967 16455 0.785572
3362 6334 0.567068
6906 8554 0.396541
15346 937 0.25356
10803 96 0.664777
14197 19875 0.105308
10879 10057 0.608423
18148 11099 0.729731
12040 19186 0.384731
3716 315 0.075576
2704 8337 0.277609
4557 15119 0.242938
4184 10743 0.333719
2800 8733 0.862192
14798 12602 0.116108
9603 3271 0.808729
3628 7153 0.705765
2670 17705 0.271551
6711 8889 0.480937
12015 19967 0.263488
9233 7911 0.523508
729 12054 0.246054
16200 6732 0.412153
11598 6581 0.248453
1490 17073 0.564513
12447 15247 0.905911
4480 12719 0.2168
392 4029 0.551045
14502 2977 0.89915
12253 678 0.641291
2914 6268 0.0620018
12470 2304 0.101874
11046 891 0.913603
10520 5421 0.149642
4627 13511 0.501153
4014 8928 0.474082
17750 9311 0.582702
6883 14979 0.97361
9091 6276 0.2885
4067 4466 0.90052
3411 4256 0.823372
6709 3132 0.494095
11825 10078 0.856952
7210 8717 0.602172
6631 7365 0.350181
277 11937 0.336782
17766 12830 0.536637
19804 17826 0.918894
10203 11764 0.378627
8486 10687 0.590585
4505 11550 0.920709
6023 6510 0.168798
9399 9679 0.142233
2176 3437 0.681028
6569 16678 0.49011
7080 17948 0.132564
6774 231 0.37547
18931 12185 0.711281
1929 10755 0.44037
18075 10102 0.986011
10630 6311 0.489327
3846 291 0.42474
13752 17583 0.631222
14788 4432 0.876628
155 19572 0.687161
12351 3986 0.312705
11079 2322 0.92463
10306 7450 0.460582
9113 10778 0.575528
9630 3700 0.834982
4482 2733 0.847769
10190 17965 0.0723803
363 16354 0.115176
3165 16164 0.394656
13862 8621 0.0679278
9823 8172 0.671967
9451 8110 0.199426
19934 5578 0.760655
865 6628 0.798797
3125 6372 0.0562543
16297 4790 0.0176806
1010 1049 0.0746065
5475 6504 0.588317
2217 12666 0.239999
964 1414 0.772659
6860 14505 0.465489
6202 5103 0.858166
11571 224 0.148645
119 7402 0.742007
16697 6440 0.879766
4555 5575 0.476996
10433 188 0.75781
13113 1 0.701087
12303 3398 0.104774
452 19536 0.215249
4254 6899 0.00377173
18817 18607 0.540069
4990 843 0.459068
4318 2035 0.581206
5179 3394 0.465626
3642 11695 0.951721
8331 11102 0.654508
8095 4115 0.194247
2178 7658 0.848467
9512 3967 0.439608
2956 5397 0.358213
11372 116 0.943785
8927 10825 0.723723
294 12223 0.728558
17472 17806 0.960943
5022 4083 0.12502
11972 9426 0.990263
4647 3794 0.560604
10084 6 0.455994
9612 15250 0.0366249
782 10183 0.0833365
8066 1747 0.921087
269 2051 0.126002
3313 751 0.489364
13229 16238 0.890998
2818 12513 0.795149
4209 9715 0.577027
11951 6028 0.138961
12411 1393 0.435792
19610 11502 0.19848
2356 3854 0.0774918
12485 6797 0.458874
18730 11027 0.4581
11217 1428 0.533616
12824 3747 0.588466
4445 391 0.398527
8307 9285 0.644916
14307 348 0.250238
14494 7078 0.961568
16071 12515 0.915722
9422 6031 0.995651
17656 11996 0.561497
1007 16327 0.217097
1770 3340 0.871803
15860 17558 0.424117
5235 7404 0.711042
4021 12040 0.141741
5355 15945 0.00488882
9432 2164 0.508133
7460 7941 0.232532
3384 3247 0.725898
16713 14360 0.367004
3651 14560 0.355959
5839 2273 0.746546
8662 2813 0.474706
3835 1724 0.880352
10582 19494 0.037161
7888 5703 0.0663402
9450 6489 0.125959
866 7648 0.19733
14427 1566 0.528388
14606 12739 0.780929
3416 8017 0.00703653
9568 17428 0.767771
889 7380 0.115147
16475 407 0.988458
8677 1204 0.280105
17741 16021 0.86728
7307 6522 0.89029
18875 3501 0.182363
5694 4865 0.753106
8711 6034 0.0798323
2075 7281 0.441983
12827 11374 0.368419
5696 5303 0.201897
9987 19465 0.59328
10048 1808 0.758939
3366 15812 0.11677
9596 5822 0.766263
2613 12016 0.416166
869 5298 0.37547
902 9782 0.998212
19760 9323 0.76054
8563 5543 0.106467
878 17235 0.302515
3454 11474 0.117267
7933 11736 0.360126
3511 4950 0.851388
2285 5778 0.780077
2240 10898 0.404863
2711 14154 0.597765
74 12041 0.529471
4924 11764 0.885157
4054 14017 0.760651
6734 492 0.522767
5042 10709 0.825583
2190 19338 0.998798
12876 576 0.54206
426 19410 0.727793
14690 4477 0.727019
9734 18839 0.297505
14098 2758 0.501874
1027 6515 0.779794
18839 1260 0.718165
13384 2148 0.29174
2384 735 0.327325
9930 5780 0.334059
1365 3414 0.608256
8397 12180 0.296322
13042 6234 0.0021123
18512 7401 0.815559
12768 10006 0.703763
5564 7210 0.11111
15485 3374 0.727333
3936 10524 0.915498
6552 17339 0.388839
3802 10868 0.509908
8928 13041 0.969456
12036 4102 0.458269
2768 17523 0.945139
9229 6227 0.110229
149 4886 0.541689
1770 19727 0.264715
8130 6622 0.669784
7800 2240 0.273332
6774 18213 0.558594
920 8821 0.848793
13095 16895 0.270465
5583 5283 0.945354
551 16006 0.904999
18482 137 0.325487
1354 16425 0.524756
14350 3587 0.764077
10604 12569 0.250006
6464 13346 0.862626
13874 9543 0.911123
5783 5214 0.381083
7016 2539 0.544268
13705 17470 0.013498
3355 16 0.118505
11251 4718 0.548649
1210 17004 0.195014
1162 33 0.944394
8709 8952 0.186569
15480 5141 0.989834
6337 17876 0.77933
9579 9116 0.645183
405 1774 0.0148915
6646 3370 0.621853
370 2442 0.296572
11334 8228 0.824943
12240 12755 0.801755
3298 9831 0.745859
18387 4075 0.859251
14735 5995 0.984926
9158 11312 0.0728451
5132 14156 0.890878
7934 10674 0.0701742
9524 5621 0.0229961
8277 5276 0.341601
1988 14494 0.341194
11777 10160 0.000481842
15067 1678 0.199256
4708 11651 0.275507
2262 7428 0.494457
19821 9874 0.294215
12710 5854 0.327518
11975 9963 0.419271
9833 16027 0.506349
5894 7624 0.402263
18953 5631 0.721351
3502 11063 0.586019
7842 11536 0.719059
3518 15725 0.600052
2769 5780 0.43685
728 16248 0.223155
2891 5039 0.245685
17595 16862 0.48444
4679 7049 0.657276
2829 2400 0.763515
10610 3917 0.612548
6082 8534 0.749914
12284 2477 0.689802
4118 13584 0.267906
3112 11874 0.701916
1456 4632 0.183448
17979 15130 0.763646
1706 5591 0.0678393
17799 3919 0.475324
2560 3043 0.306321
3835 2107 0.212606
18918 11394 0.3534
5147 2057 0.902825
11966 12733 0.870966
9248 4367 0.34684
68 7632 0.296008
13597 6195 0.597784
9705 309 0.503218
7046 9057 0.647979
16804 9220 0.693014
7582 9540 0.964091
17696 13115 0.700394
4663 11782 0.274119
13131 689 0.417629
7311 5490 0.937008
11473 11375 0.671793
15247 12267 0.875574
8848 14954 0.979022
3831 7990 0.057414
11424 13106 0.42906
12782 5769 0.795641
8902 8667 0.962434
3592 17965 0.275229
11486 6128 0.921306
2057 8191 0.151458
4992 12526 0.675744
13555 1900 0.269318
5036 10088 0.695204
9844 1740 0.48237
10813 2112 0.289491
2548 3033 0.98962
12449 9048 0.965131
3418 7245 0.461953
2718 8649 0.629367
1710 235 0.234516
3812 15956 0.490495
4664 12578 0.467402
18543 4318 0.92937
2519 12119 0.496119
10501 6366 0.906275
9799 1329 0.259471
3669 8675 0.722517
18620 14494 0.523777
9561 1288 0.780183
5002 10741 0.915596
1533 16439 0.0831626
15152 6179 0.476378
14616 4597 0.544692
5540 15510 0.244493
10878 16295 0.0258594
7575 9513 0.177497
14279 2848 0.076517
3492 14889 0.690165
5414 5616 0.0957517
3403 19314 0.796235
9741 7683 0.920916
7600 11626 0.71347
4919 3458 0.707992
6072 15602 0.659266
5103 9136 0.953189
6130 9395 0.394052
6265 13678 0.847336
13042 16299 0.371085
934 2566 0.976799
1028 14138 0.83847
1659 6241 0.789174
8708 14713 0.942544
400 7785 0.579229
4062 13962 0.0193791
11708 4941 0.633261
13630 12698 0.499739
3552 1285 0.351453
14476 19884 0.833991
1648 12016 0.457972
7710 1662 0.727582
14016 11067 0.0398431
19845 17669 0.437217
15587 14090 0.462275
6330 1588 0.699394
15669 9008 0.963578
19933 2331 0.118932
417 520 0.825598
15192 774 0.532228
3433 8420 0.0800366
19927 1324 0.186647
4613 8746 0.466606
1135 1376 0.609432
1170 912 0.426173
11522 7354 0.628068
1821 7594 0.533839
4005 1165 0.352002
4069 7324 0.815669
2312 10159 0.951398
11581 1791 0.283745
4022 8582 0.358913
4535 12271 0.68673
8510 5790 0.869373
9569 609 0.10789
7557 5733 0.819847
16247 8984 0.623553
3855 9985 0.0109591
15050 8294 0.0765053
7509 13766 0.589095
18376 353 0.25316
5857 15874 0.0510587
5925 9607 0.0746688
6405 15011 0.439953
7974 12529 0.625401
16135 993 0.246514
7208 8403 0.0261436
2974 8512 0.680491
1924 2180 0.720341
8030 3925 0.278045
13553 1832 0.841611
6122 11731 0.76427
6428 2254 0.779261
483 17001 0.939628
10090 8861 0.443149
7740 1757 0.714857
5302 8164 0.0336503
16531 2937 0.645334
5203 3305 0.110271
1921 10827 0.797081
11123 9399 0.354605
8658 4961 0.0548599
17331 241 0.724601
16288 3330 0.454157
5539 9456 0.216674
12107 2804 0.159938
16169 7322 0.235383
19440 7882 0.0593239
12143 17319 0.303408
150 2158 0.422328
8323 6129 0.333297
2608 1166 0.501566
7907 2496 0.277939
10307 304 0.606532
7049 5523 0.167846
4766 15479 0.467228
13745 1759 0.152984
12069 7953 0.444206
9790 12787 0.443964
9306 4534 0.270935
8073 15647 0.762109
17800 19622 0.117599
4486 6435 0.554624
8671 13181 0.866508
14690 16381 0.460183
1432 12508 0.344889
7259 7235 0.586542
4807 4634 0.505927
7932 9803 0.701162
11385 1818 0.992595
1500 18013 0.0308311
11629 18119 0.0803945
19857 10526 0.115704
8114 2944 0.218306
12750 13451 0.878478
6905 6 0.140678
9857 11637 0.186409
19958 5385 0.784327
6969 8234 0.310069
8093 7324 0.573995
9309 2134 0.620409
6336 1480 0.450916
9578 9371 0.275442
12054 1574 0.490548
14373 8463 0.909503
3826 18989 0.681666
6899 1701 0.313363
18964 5850 0.345825
2878 5798 0.300959
1285 4185 0.238603
8469 3930 0.0570315
1437 11521 0.705872
8744 361 0.292672
15229 6196 0.684064
5986 9971 0.629469
9497 7071 0.775005
4209 5561 0.346322
2487 3784 0.314556
5188 10141 0.615574
5249 19216 0.110197
6822 8532 0.653507
10212 419 0.24814
1729 5350 0.212611
13669 6622 0.98258
1817 9560 0.0291304
17856 8134 0.461401
5858 18407 0.460167
7811 19719 0.954088
6070 12659 0.164308
9928 16532 0.792131
4670 1547 0.905313
12836 19521 0.398983
17131 16738 0.334712
7749 18498 0.905165
8175 12765 0.506647
19606 6809 0.20331
3372 9843 0.341084
2060 4853 0.599959
5022 4792 0.295105
10401 10153 0.416484
10323 6112 0.252496
8079 6687 0.706683
6161 10945 0.285966
11914 10212 0.626184
1809 8477 0.66945
4476 4704 0.730297
11927 16926 0.518821
19160 14653 0.833464
16045 472 0.90864
9781 19413 0.660433
2240 2102 0.633441
10877 5437 0.549754
1302 12075 0.990411
4121 5197 0.0545071
9263 8984 0.449711
6160 10049 0.573095
13320 11325 0.0258474
2974 17279 0.547398
18385 19845 0.960446
4775 4086 0.237493
4322 2667 0.371745
11558 13085 0.916413
13025 19395 0.267276
522 3075 0.275818
2996 14826 0.0116336
13481 944 0.254804
5973 17730 0.499238
8111 14487 0.0716877
18288 3256 0.761961
4359 4391 0.993216
12867 16265 0.25578
13991 6493 0.922389
12942 9780 0.475344
17883 10601 0.495827
12881 1764 0.0452406
11717 3621 0.456205
13485 14649 0.0935534
13479 12141 0.270881
1257 2084 0.269505
4265 13294 0.441914
16153 7016 0.111959
14799 15606 0.727022
19953 6328 0.25915
18104 17908 0.746074
9516 7238 0.755673
2089 2266 0.986161
17197 12144 0.579071
9756 1689 0.261385
7917 10219 0.64615
19201 18472 0.44486
13449 8426 0.550592
17049 10681 0.0582117
6514 3860 0.967107
9871 3554 0.789545
1585 1825 0.207756
3692 15313 0.939528
9722 1695 0.47643
1002 10251 0.222453
3472 7601 0.554624
2301 17763 0.0318085
10562 18548 0.53166
14587 18049 0.566752
18284 7213 0.969901
2246 10749 0.380059
2454 445 0.785319
8550 4167 0.831081
15477 10867 0.944238
2798 3463 0.104026
8203 8227 0.152974
3599 7323 0.8835
12090 2747 0.512019
11754 9653 0.264142
9219 14637 0.0567247
12684 8445 0.675597
1773 2851 0.0204452
15569 13713 0.0843312
16751 10263 0.897032
8642 5252 0.479395
8518 6328 0.459258
5555 3731 0.00930131
9224 12556 0.835947
5264 3301 0.588442
10225 14000 0.572889
16599 2421 0.975809
4177 17238 0.981449
388 12350 0.923692
687 868 0.0516855
13872 12157 0.198946
18799 2796 0.0422173
4313 10017 0.715831
6459 891 0.121371
6192 10783 0.494916
5002 11775 0.886308
1962 104 0.856633
1530 12177 0.712734
3836 17321 0.562955
10475 4740 0.182895
16170 17848 0.306694
5477 13256 0.697737
9480 11845 0.587061
17286 8541 0.204775
7200 8513 0.993556
11659 3850 0.875019
4196 5448 0.833115
7311 5954 0.957308
5586 3012 0.104774
3093 235 0.71366
4857 16811 0.722487
16525 724 0.357404
8958 5288 0.182921
16217 18396 0.0244914
12727 10249 0.823706
6463 12320 0.271011
8809 13189 0.184989
9935 2117 0.492802
7440 8258 0.101335
1065 17632 0.983855
14787 6250 0.10043
19199 5896 0.491009
2706 10294 0.0305585
4319 7141 0.0601622
6414 3676 0.559545
5313 1037 0.108925
2056 1951 0.585612
19153 1414 0.476245
5820 1866 0.0199148
6871 10795 0.037161
12177 4172 0.936907
7790 14073 0.844233
11544 552 0.114388
1248 10695 0.502899
4704 6733 0.263443
95 2154 0.796864
8334 9084 0.934301
8628 18052 0.484096
7346 11377 0.176795
8978 1229 0.269223
18216 10799 0.147034
7017 1018 0.422372
9196 5419 0.492802
12141 8330 0.455043
240 15746 0.865041
14254 4449 0.971947
10729 12414 0.840258
7996 9276 0.984297
11388 10254 0.293398
18661 4772 0.00832381
11948 6536 0.0189257
11159 16252 0.490713
2750 9332 0.761013
555 10221 0.219556
6227 4940 0.198131
10562 17677 0.0484252
15720 129 0.290427
2125 8739 0.336065
1482 15415 0.599139
9587 12279 0.924422
5716 12346 0.720173
16236 3311 0.878447
7199 14518 0.557121
10783 2461 0.0362613
18408 12357 0.982689
7832 15286 0.669964
10334 18426 0.849887
1566 5623 0.105743
8938 12169 0.602533
1228 4310 0.0554606
7181 4860 0.64993
18425 3548 0.0120509
19322 18494 0.121439
17380 15967 0.809524
16287 18640 0.157187
15435 18199 0.978484
14902 16407 0.201682
13399 18583 0.137668
17037 12762 0.156931
9251 8102 0.854178
2814 14352 0.72644
9791 2260 0.369598
9499 6519 0.501813
5632 9467 0.23531
9345 13990 0.205259
13092 523 0.300752
14108 11752 0.137069
2580 11790 0.513864
4504 8339 0.884127
11360 15697 0.701378
4196 4126 0.916476
153 7571 0.837617
11200 15172 0.873224
12121 11282 0.846128
3405 4118 0.0948885
12205 11058 0.387766
7477 11185 0.95247
12266 13896 0.151446
18018 15576 0.587608
8950 780 0.205486
13515 2797 0.734537
6973 8433 0.289662
1448 9789 0.199201
8147 5285 0.061854
6877 698 0.0320048
12243 6296 0.51188
13277 11965 0.54415
7854 1163 0.54504
5749 7127 0.938887
19558 132 0.526269
64 10676 0.0423389
10947 2037 0.491232
3766 11223 0.169517
10987 9499 0.634588
5011 11142 0.38056
10801 1074 0.316485
4759 10131 0.773927
12898 3134 0.496114
3138 2769 0.74874
12045 11758 0.433371
5841 2053 0.29308
4084 16086 0.848706
5150 4226 0.636315
4479 10140 0.864768
1151 4795 0.0794749
5296 4500 0.487927
9002 1024 0.692825
6365 6051 0.958113
8687 12243 0.437293
4170 7046 0.556438
8249 5957 0.49624
15489 12949 0.98314
5590 4244 0.295857
18609 15177 0.362259
10500 15181 0.763511
17317 2881 0.729296
3017 19366 0.0657018
5898 10724 0.594956
14447 4608 0.740367
1514 3692 0.989418
3402 4740 0.600893
4467 10790 0.20705
7011 3772 0.489224
10098 19892 0.42029
19420 4270 0.288537
16159 7839 0.564513
8981 11700 0.0150035
3377 8066 0.521575
2154 4545 0.943763
17966 11139 0.109623
14872 3966 0.834186
1786 7760 0.708496
3294 670 0.727601
5790 11614 0.709916
5688 19616 0.089406
241 17312 0.637649
15190 1858 0.180711
4495 7924 0.620894
7174 12768 0.746019
19960 3039 0.886761
469 2552 0.132653
2540 8842 0.837303
4813 12784 0.060758
6530 8539 0.755421
5629 7005 0.372131
1444 4692 0.626057
19327 6494 0.868912
10876 11349 0.182423
850 3830 0.0411091
6411 15732 0.728558
6147 3938 0.93658
19962 17080 0.532352
3318 5158 0.391591
14582 9884 0.682933
3013 11148 0.979124
11765 17966 0.927671
3203 4705 0.330383
13209 6845 0.454185
2581 11804 0.48924
4283 11479 0.207589
5524 7620 0.750609
11791 607 0.973444
1095 18365 0.894619
18988 3790 0.899944
5958 12216 0.547647
7050 1390 0.929673
5056 15047 0.11608
580 8158 0.118049
18134 9240 0.787762
11556 12096 0.995963
10764 1206 0.0154476
16876 9874 0.150004
340 3119 0.81733
2024 2545 0.167419
2641 12800 0.623389
3056 1960 0.822477
12049 6681 0.52927
11088 16586 0.593697
11979 9883 0.958269
11385 13550 0.294451
4455 2573 0.941498
523 19807 0.279965
4682 5443 0.901343
19026 16541 0.18976
11308 10147 0.130911
3182 14969 0.859251
1673 10122 0.598536
17863 8107 0.160467
506 17933 0.937668
6108 1908 0.0134284
1477 15714 0.172939
19683 5508 0.87003
6289 8058 0.223446
12013 13865 0.941262
11557 19804 0.50588
2941 7281 0.673874
16958 1175 0.516403
12082 9125 0.36198
8772 4607 0.280271
5083 11370 0.912752
8006 14296 0.246052
3223 11520 0.855692
6256 2832 0.00764511
388 11711 0.51698
7609 4450 0.889913
4248 4268 0.664045
15315 3523 0.895852
3503 10110 0.396215
14167 4635 0.478731
3803 1826 0.105992
9018 16095 0.546354
12143 9660 0.577493
4591 281 0.0248342
3207 10974 0.415399
10208 12582 0.443486
13694 7981 0.795271
5907 11982 0.382427
1328 15305 0.328977
1241 13271 0.186311
4528 7752 0.775215
7780 14964 0.0123064
9634 14417 0.758806
13548 9368 0.764993
7479 1410 0.0391002
13208 18476 0.106388
15603 4102 0.160901
8383 6795 0.0134921
12509 8257 0.323518
286 2886 0.405844
6225 3027 0.668096
6264 5651 0.506837
12891 3877 0.972475
15246 19049 0.664822
9432 3746 0.209767
18274 2713 0.692777
14196 13633 0.831183
3173 4594 0.375074
12635 12533 0.211011
5507 1650 0.650924
6329 11883 0.817151
2355 11600 0.485055
3370 8447 0.48105
11685 7603 0.262289
5292 16514 0.190744
3304 6485 0.578299
5370 11601 0.719269
4038 9625 0.911616
1590 12343 0.913787
11113 3988 0.277936
18063 14189 0.211011
13313 12247 0.957483
13388 1617 0.274817
11486 5919 0.240862
3853 9384 0.0156293
9289 1109 0.281438
4346 9173 0.639453
6556 65 0.949331
19366 3781 0.686415
15933 12661 0.766882
8407 2563 0.0274761
4737 258 0.938784
14187 11598 0.176672
17684 6741 0.629852
1157 13181 0.149642
16073 483 0.100652
5520 11158 0.163352
11720 9393 0.338933
16899 17958 0.821493
12021 1070 0.326259
18612 13033 0.0507185
8941 1038 0.237942
11052 4766 0.0501328
5748 14929 0.366489
65 8102 0.831498
10107 8263 0.72705
4939 12615 0.534771
17204 7186 0.0251493
1879 445 0.920551
3709 15511 0.743724
16958 4263 0.149777
18543 2907 0.271511
7517 17713 0.910908
11636 11932 0.831306
771 9672 0.442162
11667 4408 0.956874
4816 5927 0.0750352
3673 3918 0.346897
198 9463 0.696168
2798 5900 0.524146
4011 421 0.634437
6665 18932 0.123837
17350 3335 0.179559
17747 18985 0.854277
4027 15841 0.800133
8884 2964 0.309884
5527 2604 0.1657
2491 2280 0.109578
1607 4556 0.504199
296 3670 0.890232
19157 1272 0.337034
5803 12834 0.817036
5201 7654 0.304419
2893 10364 0.235199
821 9692 0.495015
9895 16797 0.425859
4433 5432 0.00342269
16508 10450 0.201236
1434 15535 0.390907
8554 11300 0.415926
5117 6361 0.800468
16998 1154 0.377539
8128 6879 0.200928
9387 289 0.705878
17832 6654 0.891873
2538 11005 0.861122
6930 3521 0.485831
8797 13657 0.474775
7843 1651 0.439712
11972 18296 0.384446
4709 6906 0.367963
11490 14249 0.464922
9633 5431 0.486702
11917 17237 0.48331
3916 14636 0.00906482
8085 12687 0.0383472
10369 14804 0.548755
10967 9287 0.766932
19751 17238 0.883556
7936 14189 0.238613
3793 6116 0.591732
11970 8049 0.509973
13646 5464 0.911924
8297 5293 0.663628
680 6348 0.0521125
10765 4556 0.0246633
1319 14294 0.205353
11606 7640 0.860572
2183 19359 0.964689
17396 1401 0.0766309
4141 8909 0.491574
18102 18734 0.609876
12631 2189 0.875672
8930 14895 0.847811
3600 8494 0.472491
11125 10669 0.284989
12191 11833 0.986027
7799 5503 0.0470013
12613 16501 0.730588
9889 10743 0.368501
12265 10529 0.513719
18915 12955 0.0516855
4374 7423 0.405947
12661 2569 0.0581043
8637 8225 0.776861
3800 12167 0.299955
13600 18423 0.396945
12791 16280 0.202085
4344 3118 0.00358823
7072 4978 0.998798
3904 17422 0.805734
550 4612 0.995884
15455 7056 0.429969
9337 6084 0.783834
9838 11596 0.971327
1412 17495 0.75492
11041 6001 0.0769712
8959 10875 0.976846
5642 9889 0.14503
5382 6287 0.189263
12961 4878 0.477052
12079 16912 0.886185
10777 16407 0.851928
9314 5576 0.701686
3827 3043 0.512815
9837 7452 0.750018
9027 4032 0.367617
3508 704 0.400711
3336 9365 0.62914
16524 5425 0.0987062
8248 9924 0.9058
12435 12579 0.922935
291 5641 0.891589
4506 2310 0.312103
4233 13145 0.372833
9757 16502 0.541073
4173 6450 0.631119
4420 8680 0.810574
10506 1242 0.301298
3410 7687 0.895618
10469 11615 0.0417917
14420 10773 0.398173
86 3495 0.740677
1471 13042 0.482925
18667 16938 0.712663
19079 4512 0.790643
15446 10196 0.250128
18134 7329 0.595292
12869 1039 0.823997
3678 16570 0.727333
3892 5634 0.763847
4972 4517 0.274875
3597 6086 0.692823
3799 19534 0.883367
8350 745 0.609724
12715 18540 0.37299
10484 18387 0.0525872
1964 7844 0.827141
15115 18626 0.763318
13835 5834 0.318429
9075 3529 0.293074
4237 6387 0.442503
7308 18386 0.230918
8652 826 0.557854
10593 19723 0.860278
6251 11225 0.113226
3990 8176 0.391716
4924 17549 0.508578
11887 1067 0.814729
2429 8159 0.192647
6754 8862 0.635512
10660 15833 0.0168565
1657 6051 0.0878386
10865 8552 0.492925
19084 7329 0.591769
12059 11936 0.551754
10426 824 0.0612216
2502 19886 0.989634
8968 7118 0.804526
1546 494 0.161825
15441 5306 0.388208
14151 11336 0.407829
12211 8990 0.716524
10298 4525 0.143326
1536 1943 0.596139
16949 9729 0.80304
334 11978 0.973359
15220 17525 0.706944
14834 14110 0.337022
2655 4965 0.855922
18495 9046 0.962102
267 1261 0.797905
49 11036 0.986623
2050 19122 0.287877
1553 2763 0.0937438
16321 9727 0.0792566
8681 9340 0.343991
2310 6555 0.487505
3087 12622 0.724919
3811 7283 0.812881
17245 11173 0.91649
15816 1842 0.00495504
7313 3403 0.516955
589 9619 0.553212
14555 48 0.699058
19415 1450 0.591291
9836 9607 0.486403
91 19449 0.499446
10275 379 0.164533
15850 14341 0.319293
4233 11896 0.43366
14766 15116 0.410438
11452 5019 0.257558
741 6706 0.947608
17651 5048 0.89945
2764 18787 0.638751
9214 12589 0.870464
3554 789 0.914214
16473 9185 0.898014
5661 17931 0.832825
3762 5484 0.877804
2476 681 0.186305
5770 10635 0.697987
10709 1867 0.449801
15116 4627 0.351805
499 5031 0.128474
19230 9447 0.377527
1540 5084 0.272867
17946 8461 0.338411
5023 7704 0.229859
13790 6239 0.816393
11491 10550 0.253567
7550 10394 0.455164
4993 6540 0.356529
6944 4366 0.807424
17534 3767 0.751341
6586 12582 0.0773221
19920 10596 0.629371
3599 3198 0.691941
18861 2981 0.884533
1505 7722 0.906044
1915 16940 0.881886
4588 9473 0.629132
19272 2215 0.884147
6378 12072 0.794164
12436 10032 0.0493008
6804 5215 0.28088
11070 4690 0.206516
1753 5362 0.0588804
2720 1914 0.159257
14957 19045 0.906255
18820 3421 0.896881
7514 4594 0.926049
14412 10465 0.999669
7951 15308 0.217299
19303 19308 0.997265
12448 2250 0.218296
9902 7009 0.89113
9451 15186 0.986575
12735 7272 0.396855
3305 10351 0.0426206
7457 8176 0.751865
4006 9588 0.786484
2530 359 0.140373
16842 6368 0.573583
12156 3615 0.491918
4178 239 0.331485
241 1211 0.671325
3625 14049 0.356165
5749 1650 0.652454
19904 1716 0.125835
17314 2669 0.585912
2327 13906 0.200054
18654 18943 0.381088
11736 19760 0.777429
534 2460 0.0588971
1383 11782 0.48847
260 17184 0.665094
12731 8337 0.133712
9507 9236 0.631556
11020 12222 0.658145
3164 5528 0.0359101
18369 19027 0.166027
10751 2394 0.500027
6932 13373 0.149145
9699 2393 0.472831
5482 3561 0.404132
7290 1135 0.53672
1584 6280 0.641361
2233 15354 0.541648
12329 13518 0.276723
11072 86 0.988678
8705 7387 0.464852
8187 13375 0.746737
76 11693 0.128321
11750 5895 0.604947
9259 12253 0.110079
10840 402 0.109634
11153 6169 0.978688
2938 8973 0.316292
18682 10097 0.117881
5091 13184 0.972858
8657 13883 0.495515
86 7206 0.631933
230 231 0.971327
7769 1589 0.0558021
10201 15848 0.760906
1097 3925 0.700851
18337 3574 0.934301
11391 3286 0.744398
12147 3130 0.549707
16086 3053 0.247532
5073 5319 0.737613
10386 6809 0.2863
10729 2889 0.532997
1984 1889 0.626436
1555 9757 0.027281
17280 2354 0.0527405
9432 19065 0.768854
15300 8626 0.014771
7659 9270 0.327642
7073 12706 0.0960875
12748 16577 0.00147555
9304 7005 0.238585
5123 17418 0.66613
12525 2480 0.847008
11310 3176 0.545607
7325 11886 0.170811
763 3429 0.188157
4633 598 0.119822
11985 13881 0.498858
18524 5799 0.129618
13493 3738 0.899183
13644 4105 0.411348
12721 187 0.305762
12409 10639 0.115779
6902 15574 0.0671847
7312 5696 0.180813
7389 7477 0.620618
13792 6594 0.638817
12295 15069 0.632729
76 4648 0.348348
4820 2217 0.677422
7616 13141 0.832755
11510 4370 0.579433
19839 19506 0.150735
344 15258 0.381028
3652 17073 0.404809
3421 8334 0.370915
10461 357 0.635307
4964 5748 0.967662
10068 2779 0.496388
9091 1947 0.214336
4956 4107 0.0408089
14327 17910 0.803008
1954 745 0.283873
11246 3530 0.0553545
18112 5370 0.110125
2550 8855 0.639572
9127 6996 0.216574
2873 13168 0.287715
7508 5800 0.790971
12672 9801 0.460463
3801 4053 0.175332
10108 2864 0.188949
8773 16768 0.0439376
2348 13703 0.661614
13759 8082 0.126349
13442 11417 0.893017
19751 11793 0.989642
18462 5781 0.197216
4101 178 0.0682825
8296 1695 0.675651
14406 811 0.90368
5832 948 0.843569
9560 18966 0.561269
10750 3115 0.141513
11963 8639 0.162409
9950 17885 0.51691
18003 11001 0.430252
1608 2949 0.912752
956 9917 0.549284
10733 2134 0.01433
1048 19491 0.36198
9667 14189 0.558583
16176 3923 0.672373
7562 18714 0.699946
683 13829 0.405844
9065 14850 0.164442
8823 348 0.126812
5450 17200 0.906647
8724 17721 0.740356
12558 5199 0.953222
17262 10526 0.768169
10665 7803 0.21944
4943 2032 0.698417
5872 6756 0.80304
9852 10213 0.900272
8183 3264 0.915181
9546 13283 0.112625
2618 4813 0.630268
3946 4358 0.606509
13035 536 0.603226
3983 7620 0.532207
16985 2064 0.202215
18949 7881 0.411644
12955 15302 0.888504
2532 7790 0.949729
10813 7632 0.521933
18671 17139 0.913969
17431 9984 0.596909
6248 143 0.0102561
4675 4034 0.451712
3498 343 0.879569
248 6871 0.774837
6827 2549 0.483584
19549 9665 0.277134
7897 7740 0.401614
12593 4800 0.243618
8138 12958 0.757831
4935 11786 0.928669
5774 2086 0.23376
6113 16642 0.803066
8015 8768 0.888189
9691 6417 0.12643
4192 1031 0.140644
1648 10758 0.115454
5701 5654 0.00939197
6799 8440 0.804358
7190 7276 0.299955
10587 5256 0.885025
2280 11609 0.804392
8530 7237 0.723861
2185 16568 0.635218
11894 2914 0.815748
3321 4683 0.0935544
10172 16911 0.182363
2110 10135 0.895363
9182 9006 0.602219
11979 1513 0.269223
7114 11687 0.678807
10594 363 0.511537
7746 5317 0.872187
11673 9503 0.253439
2421 5034 0.877271
7991 8608 0.614835
11237 18873 0.911817
10043 10987 0.995884
9560 10728 0.188124
13713 973 0.745283
9785 1263 0.7217
2264 9325 0.676475
2913 7482 0.857024
19164 15377 0.234107
9753 12185 0.301347
4021 1744 0.577502
18131 19398 0.479395
19950 19289 0.643815
8310 13455 0.557793
11277 9353 0.616535
9478 5139 0.148812
7097 5670 0.419667
12677 1889 0.865223
3921 12404 0.984338
876 16412 0.835439
749 8657 0.972293
10831 1646 0.087053
176 5019 0.439168
373 6057 0.110959
4045 2419 0.0806672
16313 10441 0.470853
9451 15268 0.285235
11442 8521 0.573773
13443 8803 0.299239
2476 8413 0.103209
9518 19612 0.815669
8003 11408 0.457462
6809 8922 0.932819
322 5393 0.0350753
3338 3406 0.718608
2406 11355 0.244727
14199 19882 0.210836
8386 17834 0.717219
13653 19332 0.462886
273 937 0.559466
1993 4200 0.269144
8161 11799 0.922357
3594 10667 0.443415
5161 9006 0.286225
11772 5612 0.866569
9925 1802 0.0150017
17757 1961 0.277429
3713 6560 0.209589
1523 6796 0.965476
9285 1633 0.594679
5630 18847 0.776469
17804 19166 0.1668
7154 8459 0.723568
19714 2235 0.13403
9276 10084 0.00861752
6068 2360 0.853946
12070 5428 0.795956
359 5430 0.700432
4841 4960 0.27569
10031 9581 0.130911
6863 5655 0.0291584
12654 4382 0.624565
17815 11674 0.317782
8389 5549 0.87099
1675 5141 0.797196
10079 10649 0.698578
1166 8585 0.401433
2661 10998 0.261167
6140 9141 0.697542
19335 8453 0.741986
1975 8216 0.0895014
2212 19958 0.490794
3714 12142 0.852988
11831 7342 0.537087
5880 10717 0.920082
2809 1049 0.0147413
2309 16681 0.519305
96 10858 0.991425
8429 4332 0.121566
7813 1986 0.0750526
2904 1359 0.993658
10883 11715 0.146291
1074 13 0.303221
6744 12602 0.814041
1564 8638 0.470456
12946 2107 0.0389194
9299 19914 0.806331
1983 7213 0.0677748
12887 8064 0.463129
8476 6139 0.109903
10166 6936 0.26381
18975 5367 0.231747
5343 16006 0.755651
11207 4934 0.951543
968 16853 0.13075
9391 2128 0.981669
12199 11445 0.844233
17274 1285 0.470696
7748 3209 0.0388566
11519 13680 0.975741
135 5005 0.302435
8275 4948 0.583393
12033 6866 0.303946
3318 5417 0.639956
18280 9375 0.394335
19119 2800 0.621808
528 9493 0.263078
13194 12860 0.721478
6949 16763 0.492669
845 6374 0.0868464
14804 10353 0.110872
4007 8198 0.414367
8610 4820 0.619141
11363 8669 0.305593
18142 6256 0.256165
6926 11367 0.620581
11385 11891 0.684484
6991 2104 0.482835
11653 1655 0.942525
19066 8664 0.722725
7325 7836 0.721536
12317 15008 0.637318
7432 2365 0.713093
8237 4484 0.658682
6193 19462 0.277901
12989 10167 0.749707
5122 1807 0.985394
9255 3700 0.95528
17892 11355 0.185427
4304 179 0.556066
3334 9651 0.457584
6262 3155 0.930638
17803 2297 0.561205
1875 6439 0.485546
11848 7786 0.627566
6368 15216 0.133703
16406 12517 0.133889
2416 5238 0.990854
11805 4843 0.743891
3212 19838 0.173619
7094 3255 0.960708
7717 7907 0.00141272
3079 5203 0.23036
2773 7852 0.351035
17860 15077 0.859144
8419 12187 0.286326
2961 4433 0.438741
6931 2907 0.441439
12137 18855 0.388042
3738 683 0.413381
10727 6255 0.59154
8457 5711 0.477547
6087 4335 0.258241
16827 17948 0.960914
15881 9397 0.804358
3936 9510 0.924112
3099 19624 0.922206
7781 5626 0.614588
7885 7944 0.236878
3265 4892 0.360828
16537 559 0.927285
18396 1971 0.999805
6642 19707 0.934301
994 8309 0.300395
5768 864 0.550864
11589 2502 0.360572
8436 11957 0.21498
9531 19568 0.728344
11222 6 0.668234
7320 1697 0.526534
13292 11434 0.0173799
17904 2885 0.939294
7348 7041 0.145559
155 4860 0.821008
6793 15040 0.095887
5324 8653 0.107815
15464 10957 0.0308049
4831 3281 0.895618
19532 10134 0.471251
714 13757 0.409965
7289 12134 0.214475
18649 8865 0.665953
7554 9734 0.415303
5455 7909 0.154445
7860 17588 0.689716
6849 1800 0.245271
13325 18948 0.388354
16034 4435 0.848121
11358 17389 0.199081
5661 6205 0.39196
6102 5446 0.18878
9680 7473 0.125705
271 5859 0.537689
9454 7602 0.427639
12412 13854 0.761009
4586 3941 0.17996
6839 18242 0.182388
18001 5497 0.0728916
4548 2797 0.55754
14606 10378 0.196026
5647 13398 0.480237
10971 15564 0.995817
10990 8966 0.993175
9844 14667 0.881073
9374 9092 0.0638561
11552 3763 0.660446
1830 6279 0.838752
4417 17009 0.0351246
10727 6048 0.99684
3825 1990 0.503723
2743 8513 0.851424
19149 2399 0.552727
15029 13740 0.562293
9456 4979 0.637648
8179 12208 0.209442
19470 4182 0.302435
2859 527 0.654951
11146 6355 0.85731
5586 8355 0.923093
13962 13436 0.103928
6316 8231 0.103853
4180 7986 0.0212978
3232 19387 0.91115
4775 6904 0.185896
11062 10051 0.302984
4983 9916 0.978822
3345 15436 0.0925368
10254 17152 0.692315
18424 12433 0.591764
7835 14923 0.378243
854 10280 0.256888
2083 11809 0.974467
4525 2515 0.319406
4556 1717 0.251826
11603 19095 0.715686
4350 1107 0.82688
4951 10718 0.492369
5026 9768 0.827315
12260 11769 0.776087
7792 2333 0.278811
9627 5517 0.1668
3619 5585 0.582077
3605 6610 0.862466
3478 379 0.48561
5328 2750 0.947034
18749 3293 0.41853
6839 11580 0.548529
7188 6572 0.919854
4670 10137 0.816718
16810 3513 0.522531
10352 150 0.822851
10574 13698 0.6975
5927 12833 0.894423
205 12350 0.367364
19775 4803 0.699669
4091 18443 0.23081
17060 8110 0.433371
6015 6366 0.596139
10796 10635 0.358866
2362 5069 0.0760363
632 12660 0.880527
16620 15399 0.620894
12409 19645 0.768866
10079 5257 0.376717
10553 9638 0.486668
16500 12180 0.0354098
11519 3895 0.232731
5576 12181 0.366827
6798 4119 0.578079
6833 3977 0.478767
6558 9379 0.833991
16224 877 0.776764
10400 7862 0.84586
1654 19079 0.165752
12356 2484 0.00424125
8374 7077 0.19363
1728 15676 0.851439
17980 8458 0.173469
15255 8062 0.57158
11670 684 0.605524
1439 4676 0.161963
11905 4469 0.440788
12163 3316 0.946002
5696 7024 0.320344
5946 11134 0.121371
24 12798 0.342176
3274 3436 0.414113
13322 6147 0.504949
10617 9245 0.472941
5918 3545 0.639578
19077 19104 0.741983
11849 843 0.974956
17000 16540 0.825583
15446 14397 0.63544
8975 13265 0.96472
17713 9563 0.258037
8924 4703 0.560072
6948 3801 0.747436
11667 9351 0.326276
9166 7506 0.78405
1705 11508 0.950689
8968 3958 0.208526
16122 9751 0.894282
8607 13071 0.658965
2744 8709 0.982689
10851 587 0.195158
1393 1460 0.913366
4046 6669 0.373319
10893 5257 0.639789
13090 6332 0.151114
5567 12875 0.650273
4199 7993 0.035965
11161 17235 0.97507
4069 12555 0.712734
10043 14273 0.662737
2775 18295 0.83491
4300 1878 0.491887
19451 17446 0.704051
5916 14226 0.450318
5382 5494 0.787393
6255 12472 0.164721
4484 8341 0.340648
15925 3348 0.0620882
1074 4832 0.778109
9052 12294 0.46303
11544 394 0.354293
8812 3863 0.964319
5126 3226 0.311698
16890 1285 0.299984
169 4959 0.624687
18278 10479 0.570886
4389 8255 0.924105
10900 1693 0.719956
3949 7549 0.684094
2448 15192 0.250576
1277 6123 0.288266
701 8037 0.415052
17641 12962 0.382896
10483 125 0.919465
8162 10407 0.678949
19970 157 0.927203
2337 12433 0.0736723
9302 12214 0.343763
7660 8229 0.108784
817 849 0.758144
9186 15471 0.508237
12903 1337 0.675778
12107 5368 0.947038
2801 6897 0.761443
167 4310 0.455994
6182 11122 0.558914
9330 5021 0.89658
2120 3208 0.800942
14402 6408 0.0316963
1023 3920 0.146582
7902 8916 0.543295
1260 4369 0.850805
3542 281 0.969593
2155 8367 0.542709
10918 5945 0.855064
5077 7711 0.492184
8423 13497 0.713444
6951 9090 0.79884
8730 18471 0.356295
1642 8322 0.53574
12238 6251 0.250147
5897 2836 0.885758
3597 8192 0.420211
1401 9990 0.900086
8691 7368 0.926389
5238 2475 0.570815
17018 6643 0.866843
6645 4605 0.333465
3777 6034 0.375478
2842 16730 0.92519
12487 2361 0.453514
2530 2585 0.0595547
8421 19061 0.956373
2561 10528 0.14377
1192 6994 0.797787
4157 9564 0.359939
14447 2499 0.408045
4958 11032 0.683932
19320 18001 0.148812
4149 8356 0.497793
8448 10551 0.340044
18329 3404 0.476983
3124 5025 0.308393
13559 8689 0.400974
6658 11105 0.887227
2057 4943 0.470223
7525 3548 0.378627
8919 19218 0.411939
6092 11649 0.100068
6060 18795 0.262755
10617 6610 0.191842
12181 626 0.360369
13458 10553 0.331792
5393 9820 0.955034
8269 13549 0.0631725
14305 11109 0.667629
5890 2190 0.88292
11360 884 0.0953244
4343 4732 0.187299
3961 16842 0.0565054
7512 1130 0.419449
12349 2721 0.621761
4493 7281 0.123753
19904 8963 0.115454
4214 10492 0.89893
7553 4991 0.908171
8555 6992 0.306285
9538 4030 0.371932
5037 10352 0.97837
4974 9352 0.16423
7621 2717 0.675072
2211 6246 0.618673
6293 2645 0.93441
11580 14391 0.00827554
15398 3061 0.496383
1433 857 0.664949
2960 17729 0.158459
9901 15399 0.240175
1527 6163 0.232855
2389 10760 0.795837
10889 927 0.420768
10040 12923 0.228897
14629 7534 0.0911947
668 16261 0.164563
9707 5305 0.661564
10970 16158 0.839702
19655 8098 0.100914
13181 12691 0.0879833
5336 3284 0.126203
6682 9860 0.788593
14219 1451 0.785572
42 4147 0.553001
12060 18321 0.4096
6713 9216 0.794124
1970 7595 0.62431
17693 12655 0.349934
10284 4357 0.340332
1790 2815 0.749035
564 4515 0.67344
8117 14087 0.878138
18207 4339 0.574474
15610 16308 0.399635
15421 9703 0.832457
16389 2403 0.056514
2597 1489 0.057637
15052 15893 0.170859
2170 7584 0.398926
7638 5249 0.943961
9135 19310 0.748715
5596 7655 0.88692
2484 12313 0.630509
16280 10277 0.721385
11470 6960 0.647368
6835 6435 0.224663
7245 6019 0.387544
1255 8306 0.812
12800 6147 0.977862
2954 13495 0.180601
17968 6016 0.615574
11600 8297 0.265285
363 15711 0.718343
15168 11010 0.0199215
1501 4863 0.624006
6501 11651 0.0253955
1751 10497 0.152169
8780 3736 0.344852
12091 13548 0.73324
2228 7196 0.264072
2250 8055 0.331023
4221 6304 0.930373
8873 12068 0.910906
499 702 0.637135
11651 5219 0.0786973
3784 12068 0.365275
2579 1671 0.620451
5553 11573 0.809337
10650 16996 0.385701
18465 18852 0.969346
19138 5489 0.858559
4697 15272 0.582926
8229 10165 0.109545
3422 3826 0.147057
3410 9185 0.359275
12080 10942 0.33996
16325 5134 0.9513
3790 6220 0.545111
17902 6533 0.345399
7913 5740 0.425587
14891 4730 0.00377173
11073 15520 0.875706
15493 2127 0.0869578
11221 13305 0.756416
13241 6759 0.811443
6050 6768 0.216858
19031 9698 0.760534
14984 5529 0.755149
11428 198 0.14795
16603 12651 0.273643
8259 945 0.277936
15246 17802 0.711883
302 7078 0.152554
4656 7724 0.727793
798 909 0.430279
12716 10883 0.186904
11917 13496 0.887743
8069 2158 0.0841927
2260 12410 0.562893
4582 5404 0.168142
1842 3182 0.398712
9922 12694 0.671415
12642 10176 0.421789
12719 9447 0.82922
3240 4219 0.366111
3778 9466 0.491887
5199 15941 0.41405
12466 6634 0.700992
3963 8403 0.815884
6660 7931 0.382262
12256 8024 0.750325
3218 7215 0.343296
19198 12402 0.241803
10630 10137 0.359846
8898 981 0.682572
15717 13886 0.221175
10563 1342 0.324696
9065 2926 0.398789
12602 11871 0.935384
996 2419 0.732234
4273 8670 0.0089007
503 8762 0.00258847
4942 2100 0.416751
1092 11921 0.811169
18684 2614 0.969311
4050 10128 0.179252
8638 19970 0.759773
9293 19131 0.272373
2079 7739 0.0828652
9279 1513 0.496109
5522 16776 0.436255
9210 5561 0.352458
11474 2707 0.0100309
11479 18898 0.0120509
2318 4102 0.269966
7738 8037 0.227406
17728 12338 0.694075
15405 15932 0.268768
15320 17850 0.852282
18270 4585 0.947166
11561 7875 0.331935
9538 2138 0.463521
17739 19052 0.0233336
4863 19473 0.54669
6213 2682 0.838564
12179 2949 0.187346
16633 12105 0.203636
4529 7825 0.245635
15271 12148 0.355118
11952 588 0.0283885
10110 15309 0.886086
8973 3060 0.250383
13470 9372 0.8419
5679 46 0.488659
10354 2782 0.540023
4 12215 0.291499
15224 3051 0.884825
1561 1069 0.806208
6487 14165 0.844233
9146 4949 0.219556
10357 11645 0.410714
1765 7487 0.177202
8572 4808 0.358535
14788 2935 0.566752
9924 3493 0.665234
13157 7478 0.19102
13026 9282 0.323659
2153 14976 0.0620791
11379 9611 0.32753
12545 14560 0.970667
6589 6673 0.481241
10883 11951 0.400646
1507 11728 0.325016
1990 11382 0.828602
12231 1655 0.073847
7555 5840 0.360353
16299 2640 0.508031
2217 10420 0.137917
12194 600 0.0826065
3166 6767 0.180302
8425 9904 0.80229
6696 5891 0.484096
19129 17994 0.533776
4079 1401 0.137095
18466 19467 0.599755
8112 10234 0.297179
7909 5472 0.716673
5519 3536 0.100299
10298 4256 0.155667
2567 11668 0.0886898
13374 3049 0.311998
4570 8444 0.15564
6220 10338 0.637605
290 819 0.34742
3131 10633 0.241353
1575 7666 0.548484
8403 583 0.993017
5946 4416 0.364274
11908 1387 0.0409465
12575 1914 0.368423
3729 3355 0.877262
1197 2454 0.644817
3150 3957 0.0583389
9886 11223 0.101714
1019 1578 0.510881
14193 4025 0.107638
6028 3466 0.846163
4619 3514 0.0267924
15369 9232 0.108736
10073 8629 0.0507814
3984 14095 0.714102
19577 10613 0.144835
16008 1101 0.335411
12368 19912 0.0183112
6160 8113 0.990205
13493 14168 0.89908
6894 6602 0.20616
10842 11176 0.275218
2919 12159 0.620475
525 5613 0.636305
9449 879 0.142199
5398 3092 0.922357
9616 5682 0.797107
5356 5843 0.343618
3891 7209 0.200042
6061 4365 0.524835
10642 18339 0.371564
8277 10940 0.808353
6693 4296 0.900803
3481 238 0.434349
12858 2576 0.603805
5248 9699 0.145299
2817 8308 0.602116
14250 64 0.149837
11048 17783 0.0844905
10614 10136 0.711073
10558 19895 0.124713
14993 7129 0.169371
989 10157 0.596641
3832 12776 0.138471
12385 16011 0.981978
5633 7920 0.492859
6236 17113 0.298573
17645 1070 0.841305
12763 8463 0.937605
10083 11785 0.566948
7366 8743 0.957104
18565 5704 0.26381
17687 6121 0.412153
6298 2927 0.543973
10671 11796 0.681797
12376 15954 0.980121
2193 5441 0.496518
7478 561 0.0280756
4625 6162 0.119124
17370 12895 0.628068
5896 9155 0.116351
2999 8554 0.869073
317 9118 0.998329
4211 10663 0.125524
4134 4272 0.459004
9564 3259 0.356306
3418 11813 0.208913
5425 15463 0.477363
12341 6225 0.658578
1530 16144 0.563513
12121 2634 0.046975
8206 2118 0.494512
1674 11651 0.629852
5029 16593 0.574162
7807 7358 0.198887
7857 1564 0.379842
7505 3931 0.804413
12598 15737 0.929653
588 3231 0.664783
7508 2029 0.574492
3622 12619 0.241423
4711 9686 0.788895
6643 17973 0.166616
14015 10613 0.532307
2210 15766 0.702242
12312 1514 0.478197
16209 11393 0.433585
10927 10183 0.284399
7920 2942 0.230432
1668 17816 0.173889
4272 4504 0.787164
11015 2185 0.767228
696 11199 0.553076
2335 8373 0.681956
5893 344 0.597797
4673 4631 0.639056
7549 2718 0.464243
3107 5790 0.221529
11627 15971 0.304046
8432 739 0.453814
3314 11903 0.0477454
10316 10913 0.249661
15020 2758 0.462883
6140 17731 0.30163
19315 2079 0.438823
8336 16487 0.157122
3124 16921 0.72746
6020 591 0.740179
9828 4485 0.0611322
15881 10334 0.19363
12109 8915 0.762711
71 10825 0.0105331
10300 2383 0.165965
13849 12829 0.0473824
2550 2498 0.408336
14814 11942 0.951282
9095 633 0.483697
3829 12154 0.74634
5227 8335 0.836998
915 4275 0.416467
6908 6456 0.253741
2373 8477 0.283631
9796 869 0.716241
4980 2026 0.883877
12250 11931 0.604351
15639 11540 0.488187
12169 3962 0.936153
6634 15944 0.448774
17662 304 0.49011
5073 4557 0.997101
13148 15582 0.15855
7672 12219 0.975639
11534 3060 0.827955
10352 5935 0.57401
9156 6283 0.932781
15227 6490 0.468462
2580 812 0.0713878
8461 1035 0.862512
6637 3215 0.190858
4990 4559 0.460705
11338 19195 0.218849
5014 5183 0.848952
15733 558 0.629822
16219 1667 0.169172
8593 12565 0.166027
14810 7649 0.51743
12594 17543 0.330826
3058 17025 0.780467
9679 13614 0.854567
3141 8756 0.464463
7374 3304 0.164443
7013 4316 0.689679
9524 10884 0.78515
13258 3422 0.539377
9457 13461 0.251837
15477 609 0.245678
14656 13239 0.393209
5320 549 0.430581
5908 17463 0.97011
4522 19208 0.713925
4018 19295 0.865803
1800 16213 0.234446
18737 16698 0.774837
3466 2107 0.651812
18451 18327 0.841763
11306 10470 0.284145
11113 8930 0.448273
8893 6876 0.0185639
2368 3009 0.603805
14457 7894 0.946605
10778 2889 0.67716
9978 7276 0.831081
686 8870 0.824926
13596 8147 0.00646908
3448 15529 0.819813
6712 18858 0.439034
12353 349 0.751556
7755 1148 0.953085
7580 5907 0.186541
2328 5699 0.304723
7076 2325 0.998224
14676 15332 0.465375
11013 4015 0.440377
3005 8509 0.382656
8889 752 0.404219
8433 14438 0.0489097
19226 9449 0.785883
15977 2719 0.41459
6876 3719 0.997381
12884 6440 0.245431
477 19260 0.802992
14357 327 0.237897
8454 10814 0.972925
10453 15593 0.11556
17093 1457 0.618461
2074 19043 0.669282
12920 7418 0.607889
1928 8617 0.11595
6075 8638 0.128321
15263 8033 0.0646414
9077 19476 0.722404
17923 2570 0.830819
11380 1358 0.688213
11242 8791 0.86128
3108 3269 0.244484
2578 14866 0.355908
2687 8857 0.915498
7342 2554 0.0842145
1096 9838 0.210865
1564 9607 0.749704
19605 19415 0.887053
11218 5784 0.0132924
11304 11061 0.879476
2416 8917 0.331377
17777 2872 0.0496176
12454 9424 0.045582
171 4892 0.216186
11003 14142 0.160814
19614 22 0.397479
2808 15145 0.24821
6461 11566 0.0316746
18676 11589 0.18728
12414 2328 0.00727182
828 9789 0.664273
6525 1856 0.66034
10761 15849 0.576956
3724 6771 0.227124
1910 6011 0.632917
14104 8798 0.95285
18124 3010 0.328895
418 6143 0.711538
18073 5099 0.346778
14384 995 0.918705
4127 1644 0.829252
3628 6395 0.297569
8382 11817 0.494995
1487 13478 0.609123
4040 17874 0.189395
18274 7906 0.881221
2295 11340 0.860137
3264 8570 0.827185
5203 5513 0.1742
8248 19774 0.831826
7680 2904 0.322914
18058 9818 0.630723
9879 3539 0.444961
2369 6920 0.653226
12545 5652 0.64716
3424 3524 0.986346
8897 5307 0.00204651
9165 7082 0.246915
522 10073 0.469264
16095 10902 0.673778
5672 12331 0.487787
19680 1219 0.280694
13165 8945 0.65304
11718 9916 0.842372
8672 789 0.00977594
17045 19975 0.579522
5657 11043 0.372817
6087 1857 0.272157
19510 9134 0.424233
231 2601 0.868297
4811 11648 0.931027
16844 7766 0.881976
7690 12615 0.00627596
8191 14918 0.272202
2094 6991 0.299475
17741 12180 0.883495
5949 3555 0.517212
12222 7916 0.462886
14169 5623 0.442633
9785 11858 0.425416
5499 16763 0.60495
3029 19315 0.664136
12692 2533 0.784646
12276 5877 0.0222906
358 938 0.131453
214 6054 0.206435
3548 2441 0.986011
10551 10655 0.271704
7020 13562 0.00506709
9281 15942 0.910273
8557 648 0.678967
14144 13457 0.419667
4941 7457 0.76041
4634 10562 0.212196
15802 6606 0.613441
1319 8182 0.079162
13569 16445 0.138291
1901 4890 0.642355
2510 14378 0.0735204
11598 19682 0.130888
545 18570 0.914245
4426 9177 0.960513
10335 9942 0.327938
12305 12003 0.23531
15696 12465 0.576668
10519 925 0.251338
12581 2871 0.310591
9567 6478 0.185566
270 17322 0.488172
17160 13730 0.70444
3335 3560 0.226933
9108 6040 0.607399
5394 1273 0.51417
2216 18875 0.258322
6397 12024 0.296817
9781 8982 0.29357
8827 10862 0.421545
13204 14843 0.307522
9267 13162 0.794394
9300 1148 0.512034
779 8870 0.0651115
2626 11051 0.975933
14098 6981 0.0122182
10609 6065 0.731942
6581 12361 0.749319
9731 6434 0.0917756
12088 5107 0.98896
8862 8870 0.349918
7140 5564 0.735566
11407 2736 0.444189
10396 5372 0.888704
2263 6547 0.0342686
8950 2955 0.895403
19327 3515 0.180445
8486 1901 0.200301
12458 4685 0.87908
8980 7740 0.641949
4804 11531 0.32948
19529 3812 0.733698
16631 7315 0.459621
1243 1310 0.421106
1672 13950 0.595707
9351 1982 0.217594
15107 9179 0.757012
6063 8346 0.693284
900 683 0.0915806
8528 4340 0.662872
7748 1312 0.652044
8015 3580 0.427043
5234 13820 0.768223
5354 7071 0.724755
18161 3259 0.905246
3227 11956 0.838891
7851 5478 0.701895
2470 2143 0.937887
12717 4198 0.358688
9636 11290 0.264574
17740 3258 0.304662
12175 19639 0.0578218
10635 8827 0.511881
7600 16036 0.188533
6733 8201 0.831585
6618 15542 0.715339
19558 9996 0.0584154
7666 4817 0.700373
3438 16470 0.73804
6259 19938 0.578762
18517 15009 0.733861
9359 6142 0.945945
1530 5867 0.538539
11864 11304 0.292815
1733 8472 0.39415
14769 11395 0.887053
18410 1988 0.298818
8192 10763 0.545249
15828 14316 0.286448
11505 359 0.990002
9750 5128 0.809589
16044 4801 0.824821
13725 6805 0.947948
10969 8407 0.120184
12876 685 0.141853
8645 6992 0.260139
14985 3523 0.636305
10041 15558 0.0979841
19334 13977 0.735997
550 1001 0.626879
9439 4822 0.740866
1063 9509 0.594164
4454 17334 0.991105
18330 11836 0.753536
10352 2962 0.63442
12172 3905 0.170876
11871 3894 0.0533871
14936 4162 0.248599
12682 8948 0.473355
5344 9364 0.000481842
8912 3952 0.150308
6475 9639 0.0295096
1410 4432 0.863514
2545 4942 0.0292452
6566 9342 0.524904
19544 13792 0.75985
4706 4166 0.551865
910 12174 0.188208
7722 16562 0.57684
1497 7175 0.0780515
10769 12814 0.494995
4391 1227 0.46289
8180 11556 0.0357239
11371 15551 0.291514
601 6025 0.698104
6354 5344 0.921007
11711 7462 0.627267
16914 6346 0.855827
1038 13288 0.547986
768 9772 0.421862
13962 6538 0.758096
11547 16071 0.461328
8966 10674 0.514459
11862 9164 0.327923
349 8002 0.355745
14674 8034 0.268921
10452 8815 0.209314
8211 18577 0.885327
16271 9490 0.0726616
16772 1051 0.178747
14755 4662 0.287009
19241 6486 0.199543
1429 8040 0.501626
8235 6534 0.23081
10965 10935 0.860846
4321 19454 0.756939
1778 3213 0.86885
5108 1912 0.246185
11642 15124 0.0555526
11383 13685 0.884914
2913 10607 0.129717
7590 3427 0.992454
15147 10371 0.816982
4932 4718 0.15997
760 6695 0.710575
1697 14430 0.948187
16339 17357 0.418854
10300 5665 0.361387
14813 14398 0.976416
5527 8135 0.0982714
18837 18273 0.0311235
9125 13969 0.501379
77 2668 0.658931
6028 5536 0.00903351
1440 10146 0.543832
1585 4213 0.519713
7787 5595 0.475004
15949 5295 0.527564
1933 19576 0.505212
8868 872 0.725224
8551 5917 0.182969
6296 7176 0.91445
6654 3116 0.875646
5863 3440 0.0488274
7760 11523 0.0575681
9300 9328 0.119836
2006 2489 0.138122
11208 17300 0.971565
8536 1551 0.409672
17945 5856 0.301914
11970 13238 0.639684
3100 1069 0.783767
6331 6049 0.43685
2935 4101 0.608256
1203 633 0.800657
8382 9934 0.847107
5780 4220 0.507075
5475 17428 0.666373
1680 4943 0.918902
9856 13328 0.46135
12599 11637 0.275099
3629 15251 0.356389
17423 8902 0.837309
2078 845 0.826297
4692 14691 0.0968485
8141 14722 0.697088
7547 12073 0.724599
59 7622 0.0163373
4781 5007 0.156895
9056 10181 0.284475
6161 5157 0.566336
9700 15612 0.704071
2190 1699 0.134511
10807 3938 0.644444
11341 8111 0.567534
6114 7516 0.936811
10331 5820 0.441389
6981 19802 0.516096
12740 2156 0.696767
7714 6759 0.638929
7146 9081 0.322508
10876 11707 0.75559
1387 18097 0.382073
2673 7312 0.0107313
15236 6033 0.486226
9972 6838 0.991105
17790 17246 0.440875
18031 10789 0.703213
11620 11872 0.876725
14118 15493 0.94131
14901 72 0.325952
3425 633 0.434876
13888 5963 0.960167
657 6869 0.164636
12173 170 0.998946
7560 11927 0.12198
16575 12070 0.491241
19921 16385 0.824734
1725 18136 0.465128
1326 6745 0.756816
3386 11044 0.831928
999 3777 0.387766
6344 3798 0.983527
1225 16365 0.820356
6149 6177 0.357657
18552 146 0.429479
7888 3994 0.367573
19191 353 0.935141
7870 10295 0.0375968
17607 7801 0.204022
16249 2253 0.589891
16271 13169 0.983986
9499 1480 0.122703
10740 5097 0.639734
11068 193 0.722055
9485 2392 0.959676
3165 5020 0.284171
7625 10190 0.948775
1122 14660 0.553869
2420 2124 0.116053
18961 12544 0.0150035
4599 8847 0.994807
836 2892 0.692932
8847 4300 0.355475
16319 8158 0.122285
9039 709 0.684537
930 12987 0.331435
12502 14431 0.901463
8927 6180 0.98961
2622 3188 0.500625
8728 91 0.188313
8506 11626 0.364467
15740 2918 0.810419
3296 10805 0.316607
8993 19487 0.000547706
7910 14534 0.824827
2267 5233 0.754084
7823 18234 0.427905
10226 1172 0.433424
7447 5430 0.85586
15351 7611 0.644316
6008 10847 0.977906
4818 10777 0.885404
15383 6075 0.101287
6008 6077 0.0855686
9374 7050 0.107677
1168 8111 0.51217
12183 6640 0.988765
2661 19387 0.370264
2364 16135 0.78986
4468 2562 0.783788
2442 8477 0.491408
5840 5723 0.990699
18617 17722 0.268768
8696 14321 0.87203
16479 13383 0.747462
12444 2375 0.186188
17282 12180 0.112405
8655 7746 0.795271
10668 504 0.882316
13306 277 0.856008
15455 7834 0.655394
3523 5931 0.23367
10390 10305 0.849976
17620 5675 0.0117644
1455 13769 0.108485
8594 3610 0.0270213
1396 13076 0.273283
12338 9422 0.507102
14632 2418 0.160232
10482 1061 0.0479602
12589 10426 0.657749
18976 11042 0.912323
6562 1984 0.997481
18305 2129 0.743086
11385 14192 0.491391
3831 3744 0.135175
2826 1418 0.243884
13653 11648 0.290224
15004 15171 0.847769
13974 6856 0.666869
10685 6358 0.261431
7536 5794 0.537028
9964 6393 0.557861
9559 319 0.277999
18329 1752 0.298848
10954 9078 0.591157
13555 19016 0.799445
368 4468 0.930783
5549 2802 0.690574
4389 1564 0.160537
7996 486 0.311425
12080 6059 0.501379
8756 517 0.101427
10471 2879 0.0265812
18793 10552 0.375
5262 12045 0.371745
3661 4710 0.414048
6435 2930 0.207267
10437 7312 0.481147
208 1609 0.756413
12123 4188 0.434136
7332 3167 0.106913
1341 5190 0.996013
5363 6166 0.938389
5203 10062 0.865027
6910 9380 0.409197
7506 7743 0.927759
1892 14235 0.237913
9602 4815 0.773385
19319 5064 0.672021
10153 1848 0.950977
12424 15187 0.917202
422 2311 0.558778
14685 7756 0.0548732
11165 2985 0.876468
4992 6205 0.0327533
6097 17393 0.24677
5892 13186 0.437723
8855 2465 0.599408
12711 15854 0.501492
16581 2208 0.0183094
16161 11658 0.625072
3579 3350 0.518787
4960 2256 0.759438
11078 3666 0.537028
15289 11542 0.69249
10342 1085 0.629924
9128 6387 0.147034
1784 12344 0.415011
4639 10031 0.662129
5179 3081 0.88072
3730 12228 0.0327533
7944 14429 0.658254
9421 9649 0.833665
5657 6634 0.286221
991 15577 0.000357518
16160 18219 0.420339
4407 3818 0.533417
16663 15313 0.897217
7204 7291 0.503439
10108 5986 0.963185
7017 12247 0.0401318
9909 3863 0.771357
12194 14320 0.057025
8596 2129 0.777342
4575 11578 0.58279
12454 8038 0.0728482
9567 9743 0.54535
7675 18 0.637001
4400 18895 0.206053
10657 8216 0.347329
80 443 0.99781
9207 13194 0.489298
7392 18623 0.743548
4959 2085 0.508769
4253 15103 0.400221
12182 13284 0.44141
10817 5087 0.23366
8727 9791 0.000229883
9962 16739 0.0526778
14494 4695 0.334493
3709 7530 0.0116089
10638 6674 0.954085
9538 1579 0.0051381
1543 19864 0.202461
14511 608 0.475714
8192 15648 0.067314
5157 5075 0.0915122
10880 18407 0.892443
9539 9602 0.455393
2105 5261 0.745859
2904 7902 0.998023
4231 7788 0.245713
16086 18234 0.840138
18343 11086 0.591138
9207 16758 0.436367
2763 3926 0.203374
6308 2562 0.603519
5503 9625 0.295455
2732 7634 0.105887
2213 1235 0.1854
13116 12003 0.485381
19163 9584 0.125687
8199 14309 0.237296
10467 800 0.491014
12524 4179 0.0780515
5393 16753 0.354355
8025 14672 0.955929
19144 5522 0.457584
4350 8541 0.593912
5410 4130 0.688838
7558 11466 0.478418
756 7235 0.861122
7908 10365 0.327733
9565 10654 0.0121958
8188 2990 0.361769
332 6544 0.403535
11210 3421 0.884811
1322 1258 0.212606
8311 85 0.627637
11020 8178 0.634183
4596 17682 0.824612
785 14406 0.0353843
12722 10505 0.181823
5305 10857 0.130779
19774 12968 0.964594
17346 9112 0.793689
4063 3442 0.224103
8696 5876 0.512422
2638 5047 0.913211
15554 9857 0.295021
12524 19920 0.39378
2407 10565 0.164965
5368 13033 0.321811
1694 9666 0.995363
2495 4960 0.155632
10368 9096 0.128643
18618 6855 0.320473
2336 12320 0.962517
5085 6479 0.637547
9022 8062 0.36158
9339 7072 0.204088
3367 10484 0.511867
18830 7711 0.0325143
7188 6193 0.740123
11090 10999 0.0716877
17201 16192 0.791102
6150 6528 0.682956
7883 6210 0.871251
32 7421 0.139964
14842 14097 0.845643
2231 10752 0.540909
11537 5432 0.860859
13006 9732 0.069688
4310 2585 0.136456
8483 630 0.52761
9116 17990 0.0358827
12050 17848 0.126479
12141 4944 0.790515
5976 15331 0.166617
13718 2868 0.623577
6237 6610 0.0102808
16853 7963 0.439562
8942 5304 0.176129
6413 2595 0.255755
8655 9569 0.133795
5872 955 0.881137
1554 9008 0.280253
1389 14335 0.122671
1414 9934 0.899237
14720 4636 0.138935
9890 2922 0.925493
3556 706 0.400823
4423 19470 0.600785
7526 10979 0.700327
14844 4966 0.800236
16082 11526 0.682936
18863 5736 0.0247358
13018 5691 0.462206
11712 12097 0.753314
17660 6714 0.519615
18710 14991 0.322611
12283 10132 0.820177
16610 18820 0.690798
2204 18282 0.692715
11443 13550 0.755029
39 4350 0.523236
10673 12472 0.0856801
7493 14675 0.939014
5452 14737 0.524109
11460 10571 0.506307
12330 10769 0.936314
12182 9436 0.826486
4155 1737 0.714916
2274 8831 0.423198
1323 1411 0.692896
4776 12113 0.264304
12144 5395 0.61775
46 13095 0.491982
18715 9812 0.657367
1171 2310 0.548206
10777 8197 0.727471
11438 16973 0.53753
14089 4893 0.352525
2060 2076 0.642055
8249 2037 0.124456
1762 3820 0.0103152
1157 13034 0.412997
3596 12876 0.0856953
10923 12579 0.767108
4034 7512 0.212109
3213 12325 0.527773
17790 17969 0.310245
263 9225 0.480648
6771 9787 0.201323
3759 6084 0.696168
17436 9743 0.381663
15845 8792 0.964506
2853 10985 0.160724
5188 816 0.580427
1487 10407 0.253112
11041 12098 0.564785
2221 3155 0.146928
12563 103 0.19732
6673 19342 0.333136
16599 932 0.458161
13732 15780 0.180001
2922 4270 0.544194
11609 16246 0.0228642
10631 12323 0.713017
4469 15475 0.156496
13112 10855 0.994266
15448 609 0.051445
11797 832 0.4191
2207 8129 0.106663
19143 2609 0.857377
8345 12569 0.149793
91 2402 0.28231
11824 6439 0.359939
7524 8271 0.749287
1788 2680 0.0624188
18934 18331 0.04748
11082 5884 0.443997
3347 5251 0.0935372
857 5060 0.916177
19073 8131 0.566969
17569 844 0.431736
6111 12290 0.239841
2627 11349 0.110681
4882 5209 0.441439
2928 4688 0.546833
18440 8302 0.224118
12641 1919 0.999393
1221 6658 0.462171
497 4066 0.538758
721 12331 0.744579
1417 2746 0.275442
17437 6474 0.686362
127 9931 0.43099
1498 15450 0.51466
13067 2443 0.0507814
4683 6146 0.87821
16638 16534 0.934894
7656 5643 0.513829
12273 2277 0.702824
8361 11883 0.841387
3368 17223 0.505909
201 462 0.401883
2641 6539 0.39715
7861 9008 0.758278
6142 16384 0.449009
15011 731 0.225481
11816 10516 0.134727
12275 9007 0.0275792
6296 13424 0.410321
2738 9853 0.0785634
17533 12633 0.927129
7969 15052 0.898397
8066 8843 0.337553
1162 10282 0.727102
1263 6767 0.466307
2725 8242 0.586462
4533 12427 0.964978
4107 8518 0.495416
6543 4590 0.609523
2187 2914 0.807537
12284 8423 0.994637
18717 8821 0.889739
11696 3393 0.175407
14500 10075 0.361714
3134 584 0.940232
7576 1631 0.507851
3959 8905 0.670682
1859 1441 0.293764
11668 10942 0.264916
2211 7307 0.148063
11497 9248 0.418205
15978 13141 0.0658099
12544 11757 0.519713
12213 4627 0.292521
5899 18027 0.0722073
3320 3206 0.00541346
17655 3993 0.512006
820 2489 0.617794
1960 8498 0.146073
2071 19433 0.698417
16223 6657 0.0345095
6597 482 0.615815
17416 9084 0.135229
8368 1313 0.19091
9332 14013 0.535135
16883 13248 0.658997
6398 9236 0.214968
11096 10413 0.232091
853 18615 0.0833086
10825 5358 0.243797
11604 7356 0.573792
7155 10556 0.539097
5261 4729 0.910791
16245 6842 0.759242
4803 17375 0.843152
3268 10253 0.300018
664 15457 0.563668
3316 5805 0.996694
3549 8655 0.00332097
7783 4438 0.953085
2193 12540 0.277409
6363 5651 0.289733
18900 6068 0.441305
10498 19284 0.136008
5088 6681 0.380192
40 19614 0.797196
2137 308 0.798352
2770 4701 0.864211
7455 17869 0.00984926
12375 1464 0.0731834
9747 12199 0.202823
1122 11317 0.350413
15373 2933 0.347164
14262 2649 0.52588
7747 18119 0.514456
6753 4419 0.396097
2702 1783 0.668627
19057 8289 0.212849
12189 1630 0.789139
9581 11541 0.475978
6327 5123 0.461795
12333 3598 0.499871
16967 4350 0.89702
5713 10527 0.510881
13573 19901 0.978348
376 8542 0.994289
14036 4745 0.659316
7821 5511 0.0717211
19565 9250 0.152169
16441 10358 0.211074
9991 4761 0.38648
4507 8923 0.827791
2409 11254 0.700552
10668 13883 0.737192
215 8254 0.49668
10515 8172 0.105584
2487 18886 0.464707
17631 8970 0.915669
1320 10998 0.601476
2544 8053 0.214874
16130 2157 0.549427
6830 165 0.0693216
13366 18613 0.117285
627 3498 0.830916
16557 11709 0.801155
12562 5481 0.354146
14637 6103 0.253705
7006 18517 0.161761
11764 2278 0.160491
8811 6725 0.28862
7154 2963 0.305033
4472 1851 0.0837386
13460 3468 0.960727
9157 9684 0.970032
9747 14877 0.188533
17767 3468 0.440753
1799 18481 0.678592
1184 7205 0.093614
4062 14460 0.655635
13567 17575 0.20616
3752 704 0.443088
10719 335 0.367352
6117 6229 0.0891652
7337 4185 0.930412
18096 12968 0.567591
18572 5251 0.0487659
9286 9862 0.439129
13944 760 0.630752
27 6418 0.00592246
6252 2214 0.157253
16907 10723 0.14404
10106 43 0.0253536
12263 9306 0.017341
14000 3277 0.485388
6107 10960 0.796965
10383 11412 0.206361
15254 516 0.709753
19504 396 0.915741
14735 19146 0.0375968
5513 914 0.485259
4563 9327 0.183849
9180 8120 0.10319
5629 17142 0.694209
15556 19252 0.728788
15997 651 0.486227
245 2198 0.127809
7440 12554 0.711393
4944 2961 0.157823
7740 369 0.290902
9152 9922 0.871354
9501 11918 0.260582
4970 3465 0.723385
1402 12056 0.301049
5608 12581 0.952728
5990 18917 0.0799329
13914 2052 0.505073
4891 7563 0.656249
16595 7965 0.326122
7524 8580 0.422869
2267 2343 0.402074
2325 12966 0.709288
7943 6691 0.907717
12610 2195 0.625748
683 17390 0.517326
2091 971 0.751716
11906 372 0.698076
9849 5549 0.381028
4323 9324 0.83745
17790 16317 0.107688
8093 511 0.183918
6767 7346 0.276181
10237 12215 0.560781
8160 7603 0.893017
12708 6808 0.484957
1930 5021 0.132789
11176 15226 0.223912
4182 12130 0.990827
10895 8366 0.949473
8833 13080 0.289826
4367 1595 0.635057
4941 1463 0.24395
14765 10313 0.816276
9864 11984 0.793362
17240 3688 0.530897
12372 12318 0.884533
852 10758 0.0455136
9082 3824 0.0237203
10963 3123 0.360888
8302 15182 0.628571
6982 2932 0.961538
2577 6910 0.96443
4053 6352 0.70372
10395 5160 0.910274
10855 473 0.139161
12439 11490 0.387495
2142 5874 0.569811
10004 15639 0.482074
5999 3370 0.0683528
36 2623 0.224354
14814 8812 0.904348
15375 8061 0.677166
9568 18256 0.594795
4990 2451 0.610251
15861 10415 0.521575
9307 18158 0.0458488
19516 10704 0.70421
11349 4509 0.126944
5280 9632 0.866399
13680 12662 0.519135
1881 10666 0.921007
10172 8891 0.850821
7374 644 0.593052
12231 18933 0.469254
2421 8407 0.322508
12125 321 0.0696158
19892 4394 0.644478
1560 7011 0.315216
7117 14344 0.131453
9484 19020 0.906093
16587 2899 0.39356
1720 11280 0.884914
18030 8106 0.582926
2337 12650 0.7534
9888 3396 0.569602
10960 16942 0.9002
14314 3972 0.699669
7935 6159 0.76936
8997 3481 0.69383
12034 16337 0.975365
8662 10882 0.234389
2361 6290 0.147381
9709 18107 0.909165
10156 3990 0.357135
10198 6363 0.390111
3852 11810 0.704884
12106 11415 0.982573
4875 12306 0.803008
7634 14552 0.629733
445 4235 0.821236
4123 16661 0.910293
11891 4206 0.427639
18527 1983 0.137441
6987 9908 0.227423
3110 6645 0.790838
3235 14593 0.18107
241 11589 0.250931
2172 11730 0.315844
16751 267 0.702836
10334 17760 0.200493
2101 17187 0.272052
13358 14938 0.418205
5617 1885 0.250251
829 11150 0.219867
659 9194 0.00506709
12421 9822 0.233216
100 4474 0.989834
18677 19511 0.49114
10533 9372 0.232297
2730 14377 0.00581163
11144 1260 0.289471
939 13124 0.377356
13033 324 0.344454
16172 4709 0.464876
18679 11120 0.549324
1164 11466 0.380446
2347 595 0.606549
3798 8326 0.0546835
16853 10159 0.576971
675 13442 0.271288
211 5408 0.238766
6935 4426 0.385662
9757 14897 0.692823
6958 6658 0.801155
6371 12563 0.93627
2757 3118 0.321107
8912 6346 0.192347
7254 9089 0.374373
2915 11259 0.174547
11776 38 0.89422
18264 2036 0.663224
17830 8430 0.0162525
12730 18161 0.923804
8531 8268 0.506647
3247 5538 0.0231918
13317 14364 0.18976
6836 3253 0.227306
3395 3286 0.609827
12460 3041 0.145904
2786 3440 0.904999
1746 16760 0.851107
12084 3330 0.886924
4522 11409 0.974357
10374 8685 0.234528
1500 16722 0.589246
6346 7387 0.504949
4944 12155 0.245409
231 8758 0.27608
12247 7276 0.617058
11676 2002 0.150423
18311 9030 0.989211
18779 1261 0.325824
3000 2455 0.48143
16197 3576 0.600359
13455 1674 0.606346
19329 4481 0.39371
2796 9574 0.683789
6490 3171 0.173063
8 3851 0.712371
10594 801 0.165996
10014 15528 0.825998
1049 11556 0.887618
12028 15545 0.330019
8809 8045 0.254235
4705 4474 0.211146
16255 2932 0.483148
8625 8733 0.977989
18481 4924 0.0120509
18579 15805 0.953426
12937 9549 0.317988
7430 6986 0.975205
6386 6092 0.0151878
18724 5931 0.573029
11746 737 0.777296
10728 7757 0.348899
17806 19969 0.956373
1341 565 0.878404
4199 1343 0.858
10029 8078 0.52823
9570 2568 0.0453008
13343 3984 0.788592
2667 7964 0.557639
5405 16162 0.259313
5905 1367 0.0488791
10567 6703 0.396541
9910 3519 0.012058
7486 4731 0.401725
3765 13445 0.125339
4451 3886 0.845483
17229 9987 0.602533
2583 9490 0.934208
7964 3037 0.371437
15797 11206 0.672649
5009 5802 0.0599993
7161 283 0.620957
11825 12354 0.659199
15937 3867 0.265285
8638 40 0.541445
1712 14698 0.0672454
5811 15330 0.0709146
2265 4296 0.230557
62 11321 0.112944
1701 11634 0.0483531
10072 4329 0.356908
16302 616 0.688355
1809 2160 0.476326
3205 2401 0.104927
16524 12909 0.00956705
5965 1108 0.315216
2739 6412 0.453734
10903 5546 0.0432671
6354 11013 0.354773
4632 9795 0.786942
2455 7446 0.0776839
3748 15553 0.201711
14256 4893 0.519333
19744 775 0.101427
9319 5672 0.130737
12827 8131 0.708496
7510 3248 0.752029
961 3342 0.33501
9180 11117 0.893388
6777 7548 0.743973
10880 14374 0.357212
3698 8212 0.962945
2270 12800 0.114808
7627 2233 0.488274
17084 10995 0.318437
15048 516 0.705076
14815 3182 0.628068
1888 14581 0.829629
9617 857 0.0172859
10202 5663 0.116002
12427 414 0.327283
15601 3251 0.482835
18762 8166 0.550857
18350 6439 0.0307451
12510 15681 0.422919
5482 2905 0.649595
3463 11303 0.0151878
17791 12392 0.39804
9948 4430 0.493367
9843 4198 0.78615
12431 11945 0.671407
8960 10383 0.378501
54 1163 0.0907912
2091 7076 0.393284
16182 3176 0.584686
12591 12101 0.00200898
9271 9035 0.806298
9018 16629 0.839784
2985 1623 0.802095
18430 530 0.856176
12146 4388 0.382878
6920 9352 0.107036
1579 6035 0.0823038
12191 7924 0.379046
11110 7589 0.550857
959 2141 0.467282
10339 8973 0.281105
3876 3141 0.0390136
12378 1858 0.446088
6198 8620 0.70444
14361 7083 0.407173
6016 19402 0.994105
12798 11467 0.541526
19846 7897 0.790965
19683 10317 0.00893502
13747 6850 0.0198876
5146 13862 0.069379
2829 8491 0.911732
15393 1004 0.380164
1610 16946 0.0654198
7225 7052 0.666804
11605 9410 0.485381
14576 4656 0.605671
7686 13985 0.86948
7928 4993 0.500687
4355 15270 0.930648
9372 6722 0.456679
2593 3732 0.811443
6433 19750 0.672674
4292 11232 0.913432
5052 8301 0.547322
7014 19494 0.365976
7310 2540 0.734091
5047 13127 0.401043
5540 2917 0.0447118
13163 16288 0.961934
10212 19365 0.0358548
9860 15734 0.208657
9702 19868 0.2502
17190 9207 0.296665
3988 1650 0.0276737
1505 12266 0.417516
17302 16490 0.948298
1943 19842 0.138712
10350 13415 0.492089
16229 7049 0.568008
19768 10187 0.287259
6559 7465 0.121831
6948 11865 0.78141
1483 10548 0.399851
11058 1129 0.205142
3891 19064 0.18976
9079 6679 0.218096
873 3723 0.0212978
18247 4688 0.264375
10547 1043 0.203618
11117 7785 0.189446
10271 2866 0.974764
10412 17339 0.00726772
7980 7167 0.259577
3460 1078 0.903891
9067 14959 0.0937438
625 11342 0.631222
11391 2493 0.135118
5801 17022 0.346778
6324 10146 0.354554
11534 4491 0.400013
18234 16469 0.358352
6281 2388 0.440368
5075 5050 0.23941
6064 1568 0.40529
7342 17993 0.400199
16146 14550 0.926692
8100 6676 0.255672
13739 4776 0.243728
7754 16262 0.0771834
1371 7943 0.205361
669 11788 0.484933
12667 3917 0.135126
1259 7311 0.88407
7952 8436 0.549436
8582 8735 0.299888
18640 13711 0.299378
16054 1029 0.102802
9923 2292 0.543028
10881 10914 0.367272
4239 11191 0.643536
5777 5858 0.286862
14436 12475 0.555163
10491 11924 0.280251
2751 12349 0.89653
5235 11423 0.188784
5907 15608 0.751566
7097 10098 0.000116516
16558 19707 0.797536
8557 1358 0.90896
8689 13599 0.591732
5462 8238 0.652773
12874 1903 0.37067
7276 4438 0.558433
13133 538 0.29357
3925 11195 0.25975
9661 790 0.481854
7449 7458 0.81631
1205 4205 0.664822
9565 10909 0.895413
11755 12762 0.745826
16814 6248 0.780574
8198 4287 0.798088
7171 1134 0.364315
6679 11970 0.555416
438 1068 0.829963
18966 6560 0.614888
9626 13333 0.634016
4743 592 0.0777997
596 936 0.396215
395 2064 0.397048
11027 4562 0.754883
3827 2205 0.0167655
9671 9603 0.0639408
13515 296 0.318112
2133 510 0.212057
6060 5895 0.618763
14814 3564 0.0743225
6589 9644 0.430252
17848 17733 0.166231
6580 366 0.296366
8683 8688 0.813461
8966 11167 0.075844
5505 9266 0.996882
9401 4986 0.463614
16922 18485 0.183918
9147 18087 0.0413436
8674 10158 0.052266
16081 1386 0.51356
3037 9707 0.315745
7188 2945 0.582077
17711 8916 0.568487
9717 3757 0.360887
4529 5533 0.155859
5601 5243 0.979229
18358 4731 0.754896
8235 12192 0.768069
19038 17764 0.229266
4128 5072 0.948803
637 7300 0.371571
10173 8022 0.730986
17688 8190 0.277901
1569 4064 0.759822
45 5024 0.725783
6984 5212 0.484096
1236 3649 0.867492
535 12228 0.3575
10688 859 0.00423679
657 10142 0.192021
10317 9329 0.923093
2131 220 0.814133
1103 3091 0.222122
19680 48 0.694726
1911 13876 0.08251
10250 5067 0.830418
9111 5613 0.673631
4752 8615 0.78238
14096 8935 0.491408
367 1243 0.698417
3087 3914 0.0422415
8386 18038 0.0783639
12414 9706 0.367617
8046 18958 0.103483
4370 17323 0.0893883
11015 363 0.555416
6243 6871 0.64908
3064 16471 0.128998
7659 2061 0.64279
13584 7508 0.820164
1691 15913 0.749442
8287 3327 0.112147
1009 14544 0.100428
19357 11890 0.941533
2627 2519 0.538896
13399 9974 0.74924
1786 11562 0.0932556
17992 10770 0.469831
570 3381 0.21871
4305 645 0.00249242
3419 1322 0.354146
14916 18403 0.454857
9019 1836 0.895844
7340 8180 0.192227
12595 10557 0.355515
3866 10741 0.903446
16080 3581 0.110776
1729 6554 0.507851
19728 5315 0.808143
9541 3483 0.349362
2031 2701 0.586896
7532 4758 0.896897
9276 3956 0.606806
7250 921 0.679596
12520 7382 0.122785
6559 2676 0.299047
11606 1410 0.197562
11941 16518 0.594795
9000 2837 0.785885
10491 3640 0.638373
9073 9914 0.621451
10340 14618 0.728389
10235 4478 0.402987
5595 10390 0.00292549
6095 11139 0.896066
1135 17593 0.951924
14670 12791 0.150577
11207 1705 0.193503
3287 6518 0.635891
11143 1906 0.446421
9330 3428 0.397479
9806 12346 0.494518
12701 6235 0.611263
956 12935 0.539205
12654 4071 0.117779
8075 1685 0.384739
2133 8 0.298593
7690 1466 0.52046
5434 8831 0.240292
10434 2625 0.168169
16703 5048 0.629132
7105 12339 0.812222
17499 15814 0.738508
10651 5695 0.735635
10180 5595 0.845867
12166 11564 0.963981
13811 12029 0.696009
3220 9569 0.0129341
7474 288 0.533923
7037 12438 0.245021
9990 3378 0.494512
818 17327 0.276011
12204 1225 0.194636
13653 17446 0.510433
13806 2053 0.173673
7102 2632 0.213538
7935 1683 0.481106
13678 15042 0.278421
11817 12585 0.951227
2972 2722 0.0383341
3086 18414 0.558006
1508 3225 0.741201
3897 18195 0.0940447
5435 14190 0.225486
1768 9981 0.384446
9260 3265 0.363906
1180 12027 0.820954
11201 13595 0.435265
4484 2932 0.333863
7555 3317 0.395501
5852 1690 0.649769
8249 12263 0.813874
4085 2222 0.114707
6624 2100 0.0382582
7347 5925 0.273323
5690 18235 0.843159
10371 3712 0.400401
9573 3929 0.831808
10582 4366 0.760651
9485 6263 0.17973
17300 8518 0.397656
3205 9480 0.455904
137 17656 0.840389
8111 11953 0.296795
7303 11561 0.00810129
6916 15443 0.418178
8080 1251 0.217618
18504 2306 0.265123
2756 17196 0.184988
6310 18184 0.86923
5758 13427 0.925489
11 15842 0.145936
11329 10048 0.836524
10907 6278 0.795973
1219 12629 0.057637
15963 14112 0.289625
9809 16680 0.833505
2568 12330 0.312705
4740 10256 0.0882784
8967 8142 0.339575
9619 19862 0.235596
12836 18934 0.722176
14182 10481 0.592703
12659 1976 0.165368
1700 10315 0.259943
2183 9776 0.491549
6594 2441 0.164028
3893 2242 0.659915
580 12547 0.719354
14550 1603 0.699852
9969 5192 0.75524
8017 6194 0.702144
5416 5455 0.812518
6711 1507 0.928965
9990 11843 0.794042
10358 17412 0.426359
11099 5958 0.943116
9931 2684 0.334059
7636 4030 0.0187872
11796 15819 0.518591
1127 6224 0.719865
2350 9970 0.442992
19414 6516 0.755149
9981 14514 0.998023
16877 15149 0.756967
3059 2411 0.870375
15099 14726 0.846133
5672 8573 0.923958
9807 8129 0.995578
352 15939 0.662658
230 9624 0.835659
10857 1247 0.559009
17845 6200 0.691396
11793 1956 0.232532
12412 8116 0.564943
3718 6776 0.177899
12145 13846 0.749461
18236 6615 0.742107
7197 16632 0.837366
541 7566 0.894073
4590 12787 0.650747
14050 10629 0.597802
14208 19256 0.141741
2006 9682 0.448026
12065 14624 0.900759
16380 11516 0.661743
15392 1757 0.745826
7886 9380 0.737652
5074 151 0.256284
2228 5007 0.457682
9015 4473 0.329636
98 19250 0.102995
17894 5034 0.737686
11809 2331 0.882184
5315 4081 0.0815092
461 10611 0.43784
16509 18017 0.425483
2169 19959 0.940308
11257 1043 0.434944
5155 8045 0.543334
13835 9372 0.831183
11860 1608 0.857329
1841 8248 0.0228749
19474 19288 0.624253
8891 6841 0.7217
11353 12995 0.509419
1935 11156 0.345056
2575 6419 0.0285438
16531 3346 0.462171
5809 803 0.229331
7525 16248 0.583022
10227 5959 0.465513
552 6607 0.698597
18349 17782 0.527773
13367 12718 0.671846
6810 322 0.928514
8602 5431 0.441042
4542 355 0.714916
200 16009 0.0710591
10587 5877 0.0292452
8503 5359 0.593401
4083 19502 0.696539
3886 10045 0.705396
4819 10058 0.473828
4046 14575 0.465923
12746 357 0.027665
9984 742 0.692057
479 5729 0.255137
19589 17322 0.162178
17001 8363 0.0445864
529 11663 0.940075
11532 1310 0.447805
12668 4677 0.0684107
9618 2177 0.449168
13891 10774 0.0163373
3276 14738 0.995963
4036 10061 0.24373
9514 2285 0.676418
5750 11440 0.306429
1732 7732 0.819782
8123 13110 0.709361
2196 8250 0.297469
13500 12899 0.0812575
476 1876 0.900833
13509 6687 0.460898
6110 5177 0.150664
19939 1320 0.0969166
1131 9705 0.809871
5386 1621 0.0503648
6029 16799 0.193624
8776 2730 0.324795
4180 4409 0.439116
1614 5967 0.83529
16699 4672 0.547499
1056 15554 0.13755
18690 10194 0.922259
17359 57 0.658947
16575 13610 0.190159
9064 5794 0.314399
402 13731 0.102181
17933 7850 0.457169
10909 5249 0.194832
9036 6414 0.154862
7760 18209 0.873022
4466 2837 0.981734
7758 2109 0.934211
6767 5768 0.291794
14392 12374 0.641949
3465 19085 0.312076
9917 2781 0.616536
10663 12239 0.91491
7897 12874 0.252279
8180 19970 0.818594
18865 8271 0.373998
16206 4779 0.192021
12091 16671 0.594164
6334 7393 0.722208
1681 11889 0.751525
170 1791 0.0183711
6425 5263 0.132447
5252 10350 0.553437
9461 7010 0.168141
3279 12145 0.561369
7797 8107 0.213736
9828 6736 0.662936
8616 8041 0.137222
12937 17823 0.501344
16686 18091 0.796349
5421 10568 0.235481
732 17850 0.75823
16459 3064 0.466454
12766 5583 0.510306
11273 6992 0.154026
13316 6100 0.0955718
10348 1706 0.44935
9021 74 0.473025
4783 357 0.648362
2243 9712 0.202215
14219 9151 0.771113
18072 15222 0.991188
17175 425 0.821008
4372 19187 0.0814255
10996 11988 0.586523
4553 7487 0.238978
7139 19523 0.428221
14776 18910 0.808233
2686 8956 0.210942
3806 12118 0.379665
295 12613 0.422832
15533 4629 0.222547
6049 11338 0.784447
10933 1731 0.26173
10902 2167 0.58823
17394 3749 0.442373
3897 820 0.933323
7844 10496 0.52657
3397 12646 0.846036
12334 11560 0.0787765
8290 120 0.607889
11077 3237 0.853471
17433 16800 0.842757
5892 14465 0.628795
8165 9141 0.975365
2155 12912 0.571568
14925 9477 0.318355
12490 228 0.738158
1083 7780 0.0148401
15755 3049 0.300308
4550 3759 0.895863
2669 12262 0.21613
10382 4161 0.024261
7574 6471 0.150949
12439 6999 0.568212
7483 4601 0.361665
11190 3689 0.192591
6806 11522 0.401742
2619 6892 0.663964
12096 4834 0.658085
16008 1403 0.460381
17848 14546 0.315932
3339 8162 0.354256
2571 3259 0.457897
15951 12279 0.74343
6730 11326 0.399747
13216 4752 0.39217
8146 12398 0.868453
9714 7789 0.00224117
6884 7147 0.382824
7299 3574 0.6566
3978 7401 0.720594
12505 2505 0.481315
10691 6290 0.802095
9500 11761 0.277901
4966 11485 0.222229
5787 4054 0.190159
15971 16837 0.104677
2216 14055 0.647497
10883 12297 0.938052
11761 17178 0.269732
10522 4192 0.997583
4607 2524 0.70075
11147 15733 0.140717
15186 1356 0.70871
7895 15049 0.00875017
11960 2772 0.178056
4341 17244 0.952726
784 4802 0.738938
10083 18390 0.222017
11580 16045 0.505831
11563 2142 0.723317
8297 18441 0.29886
11163 2603 0.406981
14624 9158 0.949362
7265 16545 0.540628
9714 12068 0.823076
17631 5009 0.709861
1621 374 0.541891
7417 8720 0.661079
1876 15130 0.326418
4682 8914 0.700992
2494 12400 0.174274
7983 14986 0.600239
17663 8282 0.519881
5370 8685 0.072364
17963 10863 0.698104
7376 16194 0.00906482
5062 10658 0.755726
2191 5164 0.517015
6324 2698 0.421085
11735 11012 0.103321
17106 6573 0.83863
4284 10466 0.999008
6817 1932 0.205281
11607 104 0.487506
9665 12492 0.881383
12464 3079 0.573406
8033 11175 0.674462
7301 7261 0.800167
15763 1102 0.191521
836 157 0.744079
13857 9456 0.509152
8753 2990 0.363545
188 17962 0.978246
8281 16699 0.0503197
12180 6297 0.758119
311 1501 0.880001
8358 2179 0.133511
3823 12456 0.592523
1510 10999 0.862194
17996 12872 0.469919
10478 15508 0.957406
11527 5962 0.577587
9043 12647 0.373107
11165 9914 0.730588
10093 1255 0.623417
5755 12252 0.464243
5946 16635 0.500174
11985 18393 0.80779
7563 9733 0.757799
9563 7576 0.111108
5700 7140 0.668409
10946 5145 0.598709
11977 8866 0.344389
14177 15715 0.232747
3120 12720 0.0625387
12486 1337 0.0305242
8272 530 0.975046
259 3203 0.865082
2668 6791 0.396643
8086 17299 0.732704
568 14134 0.206361
13156 7407 0.455377
11559 5558 0.814358
4024 2084 0.0871384
6623 4775 0.661985
1881 16635 0.098658
7067 10573 0.326572
10149 18925 0.652136
9732 18740 0.922398
6870 8745 0.111446
19563 3492 0.343527
11931 19848 0.879954
9237 3982 0.00727182
18215 16748 0.737068
8640 2357 0.386333
7074 1870 0.668161
8309 6897 0.407064
1510 8454 0.70186
13608 6798 0.931568
2053 9189 0.616171
4647 9191 0.864959
8958 1692 0.347164
6508 11207 0.467229
9141 12956 0.881621
4062 7623 0.78667
8510 11120 0.585451
5571 14477 0.568984
17767 6018 0.252256
6332 5956 0.963199
10662 12498 0.666755
530 5205 0.971986
2513 3316 0.0518787
7240 13418 0.0752694
11950 15325 0.282322
16809 10355 0.432867
3721 2770 0.095364
2871 10294 0.906243
3680 13636 0.470832
5823 16944 0.419408
7039 133 0.117612
11045 3970 0.51048
14848 17810 0.779181
4670 11380 0.340865
2665 10125 0.587608
8731 670 0.143453
3984 13205 0.523975
975 7476 0.38959
16840 13398 0.00278123
12127 10348 0.386678
15038 659 0.226866
3038 9721 0.424748
10360 10171 0.161023
10849 5419 0.565886
16375 6593 0.917066
9686 10996 0.886424
9141 17804 0.156895
12342 12019 0.799428
4523 4198 0.856651
6346 11725 0.534922
11994 9379 0.65088
11548 654 0.987145
11329 19180 0.338224
16491 12899 0.132471
9598 7951 0.765399
7071 3818 0.204536
9892 19878 0.550389
3859 18091 0.418178
6156 7282 0.938389
4659 19591 0.947
4229 11667 0.876085
4925 6410 0.784499
3777 9571 0.240914
8385 6842 0.584336
2742 19928 0.743325
11533 17320 0.785795
5216 14344 0.69502
11881 6301 0.810858
7098 9081 0.0308842
10979 8031 0.469264
2161 18631 0.880527
10639 514 0.746648
15655 16905 0.584182
3141 13791 0.54955
14690 1487 0.91775
11492 15849 0.55662
10987 201 0.695296
7683 13437 0.797984
1603 2969 0.898622
2720 6298 0.205509
7736 2286 0.712921
9698 11920 0.956458
10699 16902 0.864983
4222 16575 0.976006
7145 18227 0.820977
8031 4440 0.0474207
9550 4858 0.449543
4938 6072 0.450823
4222 6164 0.403472
11186 10538 0.246697
8435 3755 0.880751
6941 14270 0.100588
1511 3927 0.933702
16405 6971 0.397591
10865 6296 0.437681
9939 4513 0.141152
4442 13012 0.761473
4729 844 0.120672
7114 7275 0.53326
19682 1269 0.48291
9422 6845 0.743724
1618 10398 0.888108
13933 5979 0.964698
6260 4350 0.0141271
604 11043 0.804526
11162 6525 0.95839
2435 7017 0.0986989
4971 1724 0.557456
8539 9690 0.703601
3756 1781 0.508567
15675 11426 0.862466
13661 9286 0.930367
5542 2430 0.994518
19309 18396 0.847253
14363 4398 0.16842
18663 5707 0.980659
10611 11866 0.0339703
1907 7258 0.41382
4526 19421 0.639589
12652 13583 0.308965
333 4930 0.215175
1992 1862 0.557376
513 1276 0.495242
10606 2001 0.572399
12013 3661 0.495885
7300 7093 0.0999028
7139 15580 0.657947
10502 1511 0.465466
8307 1395 0.831692
1854 5012 0.991573
14158 18392 0.803473
14423 18475 0.355781
6445 10007 0.909222
8069 6131 0.843004
8246 15947 0.230318
6115 15597 0.213659
18127 431 0.854738
3041 12191 0.296779
3728 8595 0.0547276
16733 18891 0.908168
18245 7707 0.750524
10640 11371 0.571094
8570 6962 0.180937
3873 1451 0.331107
9975 11030 0.486668
12377 5777 0.00678668
3411 18364 0.354149
8060 5209 0.934328
2734 14496 0.278716
2646 11868 0.0411294
4801 11624 0.513076
4224 1638 0.196662
4797 14122 0.0983733
2893 7109 0.268129
9004 12174 0.890818
5525 8976 0.832641
9375 16087 0.581716
5808 184 0.814308
6451 18387 0.581478
2487 3200 0.0591265
1356 2064 0.169126
6219 2416 0.302984
9667 9206 0.431773
18785 9593 0.925808
18387 2607 0.238585
8661 6463 0.974511
1600 3593 0.926597
219 1787 0.698622
2056 2103 0.206361
7836 7820 0.515805
2439 1751 0.654107
3301 10518 0.6488
9703 10115 0.682321
12452 93 0.672661
504 14458 0.604783
19939 4458 0.676475
10327 4906 0.270208
6347 6490 0.0167984
835 9559 0.0560872
9265 12506 0.535454
7325 13987 0.846513
6103 12025 0.632017
896 15057 0.497853
1078 2019 0.659222
5837 10646 0.567694
51 7305 0.959874
10050 9507 0.747703
16359 13546 0.226697
3066 12025 0.184295
8228 8717 0.67441
6704 18902 0.94009
6790 11728 0.735539
5079 15135 0.996178
175 18362 0.999669
10956 12155 0.384461
6451 2444 0.252179
8579 598 0.872703
1251 16983 0.831498
16892 8930 0.366489
8388 2319 0.0668966
15735 17120 0.512302
6839 3944 0.589827
5260 9716 0.0652785
12327 713 0.969868
5699 10051 0.799412
1653 9005 0.544761
9721 8525 0.569118
1278 18595 0.797196
19238 3722 0.0449221
8209 83 0.794287
16843 12061 0.689292
7411 6066 0.938094
14733 7058 0.361231
8610 8155 0.388951
7891 13712 0.194176
10417 6549 0.609963
8051 4802 0.765922
5566 6187 0.354355
139 6441 0.749646
6861 15023 0.0450736
477 7947 0.666966
894 9470 0.32478
11902 14275 0.41695
9310 3898 0.628629
17171 5778 0.909151
5265 2433 0.370349
9790 16011 0.398173
12332 8795 0.986038
1139 3547 0.434944
2262 4737 0.904347
1035 8057 0.409197
2588 17299 0.609876
8671 4870 0.878998
10824 12457 0.0824579
10378 9897 0.331985
12493 16856 0.999018
13463 2685 0.570497
5066 10612 0.888911
11327 2173 0.320106
14842 10847 0.114638
2939 17757 0.532935
16034 555 0.419686
17274 3296 0.745865
16034 11650 0.19409
16586 9406 0.809027
3413 3763 0.756323
7713 832 0.35817
15727 2110 0.505315
7655 14461 0.70548
10714 9430 0.800343
3585 3301 0.922642
3034 12463 0.461656
16531 2636 0.832028
2644 3910 0.945719
2481 6088 0.457371
7638 18767 0.201682
17356 9792 0.388024
10815 292 0.298354
1739 9045 0.788995
16785 918 0.901394
1717 13902 0.433617
14430 10704 0.346669
12335 9078 0.0819677
11017 9229 0.34382
6584 11903 0.0190706
6426 1191 0.330939
2323 6881 0.473826
8242 4890 0.343423
11774 11945 0.542709
236 4804 0.0190502
4653 16038 0.652044
8860 19454 0.207388
11154 3756 0.83167
6858 17747 0.152561
11060 11212 0.0825741
5158 2121 0.536199
4182 9225 0.308894
10051 13398 0.555245
2045 5543 0.821512
5173 141 0.055244
7577 7774 0.319197
18931 12508 0.439145
17479 8827 0.0499136
17481 4581 0.162643
5397 12279 0.497272
4234 18474 0.455043
8629 12185 0.620502
8740 3278 0.965841
3499 7919 0.910502
4241 14010 0.883989
735 594 0.495906
13175 13916 0.0219548
7805 8570 0.528929
5657 19361 0.343342
432 5403 0.17964
18067 8687 0.12879
3567 2370 0.17015
10859 1599 0.374373
4371 8326 0.535961
7157 3562 0.278578
7945 11868 0.032887
6697 10971 0.479321
2447 10127 0.371087
14003 13605 0.924112
10677 11567 0.333042
12519 3314 0.0985407
5657 14710 0.0554285
1776 3838 0.0555703
15485 19950 0.162761
2132 15779 0.514623
1679 10786 0.560604
17794 1980 0.377356
2723 3632 0.150664
7951 12855 0.14713
18405 12110 0.748079
15085 9606 0.0150017
5785 9149 0.334131
522 2040 0.537638
19534 603 0.430329
13195 18798 0.305121
19003 18114 0.949405
2281 991 0.903446
14803 776 0.215646
7694 11746 0.956373
2515 4512 0.0872656
14184 8754 0.407064
2322 3116 0.573995
973 6571 0.236835
19626 11544 0.0190502
10977 18426 0.0867847
18933 6367 0.536846
7488 8479 0.40287
8499 9717 0.154072
8490 10249 0.674112
9667 18055 0.248325
18263 7730 0.279696
7530 18677 0.390081
1623 1845 0.945896
14793 17230 0.562369
10149 9775 0.872599
16315 5192 0.929248
2809 17315 0.907735
4698 13329 0.971573
19158 10025 0.635857
1279 8411 0.264715
10679 15528 0.670962
14411 597 0.430718
9140 5374 0.495087
3986 3132 0.483839
14442 13179 0.666091
19264 16337 0.222319
10020 9945 0.0642224
8082 9364 0.944082
5101 3676 0.258491
11932 1034 0.457516
16594 2252 0.199455
12372 4937 0.713466
16384 12226 0.0358036
5723 19935 0.0537108
9758 6498 0.221997
6740 12507 0.594268
9718 9279 0.53545
13278 15385 0.440822
5666 7596 0.535256
2470 4894 0.450835
12960 10020 0.238379
11050 17098 0.534463
14205 670 0.635857
8960 982 0.178421
2930 1822 0.0162233
15651 1132 0.777015
9097 4775 0.975187
5630 3647 0.0635395
10183 8068 0.809871
16707 12107 0.43986
4467 8288 0.0053938
6633 723 0.454144
5588 16166 0.757022
16999 2770 0.524109
10948 15676 0.682321
14124 2172 0.568251
6026 12199 0.522025
9119 11826 0.052239
2317 4013 0.693052
15157 3081 0.991425
1113 5132 0.643254
12755 12717 0.621149
10889 12387 0.276979
19615 992 0.981795
2038 2129 0.0243991
2866 8610 0.958094
2673 7831 0.450662
7053 6786 0.275773
6151 8437 0.531233
12953 17508 0.70845
10631 3114 0.507998
7477 5000 0.905904
17914 2457 0.915388
6129 16846 0.903998
1121 9861 0.895026
4096 3285 0.728389
1462 7100 0.713444
1521 10621 0.63834
5965 9321 0.95944
6431 7829 0.580603
15615 4022 0.690346
2827 9479 0.0261225
5751 1742 0.369598
1827 15346 0.0791803
6210 317 0.929954
4890 6464 0.730727
12008 5935 0.172778
8148 12129 0.695557
1030 4362 0.0510639
5087 11562 0.855315
10455 18501 0.203396
17451 7343 0.923095
809 922 0.416895
3947 16238 0.439264
91 8577 0.341805
17455 17650 0.419583
19457 6878 0.315848
6566 11562 0.782919
10456 2812 0.73324
9443 9604 0.39272
5499 8097 0.722307
5489 5715 0.609499
9582 6437 0.723584
10021 1902 0.34944
13918 8011 0.984711
8318 16151 0.834392
12448 3064 0.770118
2007 11795 0.848133
19179 10602 0.70441
4788 3436 0.0819188
4541 10936 0.178019
267 3329 0.952467
7550 18219 0.0869578
5379 8359 0.692969
8280 4619 0.0882114
13359 2550 0.495416
7141 2620 0.971823
4495 15407 0.500622
12636 10364 0.0901495
3947 15247 0.110229
16131 601 0.495853
13309 4581 0.401863
17216 6152 0.261985
5707 5437 0.918908
14932 11628 0.801
3499 863 0.530107
8579 7010 0.906173
972 17232 0.792257
13007 4365 0.0569428
10227 15035 0.394486
16778 2338 0.302519
14428 8410 0.884825
13221 1276 0.493792
19906 683 0.712333
4890 4186 0.240585
5562 12451 0.896866
11073 6006 0.287353
2412 7505 0.15616
11136 6446 0.981293
14948 10969 0.542981
8904 1905 0.752717
11263 4453 0.900272
4872 535 0.292815
13204 9720 0.199948
2575 2825 0.448576
9014 2458 0.713333
4639 1253 0.25606
3773 11813 0.915388
6510 4470 0.932807
674 10296 0.859259
9909 19267 0.00672385
6729 10804 0.951608
7319 6392 0.724044
7551 6978 0.891311
10044 17672 0.25873
11480 6637 0.977867
11745 11441 0.165516
11326 1802 0.442156
12891 8265 0.115704
6827 4379 0.34774
8200 9651 0.903894
5516 2072 0.476072
15971 8078 0.694441
7777 8003 0.0189168
3903 1000 0.163619
3968 14507 0.245262
9266 331 0.896139
6068 19319 0.717103
7537 8190 0.641824
3740 6926 0.475257
15424 8704 0.837481
12424 13746 0.54928
12165 17007 0.41943
6406 13232 0.750138
628 6877 0.56618
3761 7171 0.253634
11689 16762 0.478418
11341 473 0.0340637
3546 4316 0.635186
5181 406 0.0881308
13095 13785 0.692715
381 17886 0.615359
11676 322 0.58586
8060 3424 0.368262
1941 2077 0.672939
13670 12445 0.0569303
11838 8743 0.0992176
18076 2558 0.298374
4548 8606 0.521731
14120 15647 0.850714
261 7375 0.668402
10329 439 0.887618
10137 17518 0.677222
9112 9024 0.194098
18744 2765 0.181837
10075 17704 0.507299
2954 16572 0.201025
8516 9903 0.79057
10069 17617 0.279823
9908 11714 0.196056
5264 6998 0.169491
13955 13113 0.137879
2133 3564 0.584686
8973 13660 0.670297
4606 7716 0.463835
4232 585 0.207632
3539 8001 0.0742797
1444 12339 0.394486
1529 11433 0.667927
9137 15249 0.312334
12742 19586 0.776486
18083 3241 0.963231
11145 4985 0.216361
19838 9749 0.878404
1363 12562 0.686524
3433 11991 0.735959
8592 6048 0.4995
6715 12113 0.61148
8859 1226 0.796486
635 9673 0.729217
3110 11916 0.67879
19809 2015 0.340903
9255 12759 0.780643
3453 12019 0.41719
1165 17113 0.789093
17173 13033 0.86043
11223 3527 0.964501
7361 4313 0.592703
13572 6303 0.744957
2907 4693 0.00665678
1522 620 0.77545
10460 6249 0.256864
3821 9854 0.883795
15606 11315 0.33497
11230 12349 0.402747
10042 852 0.377539
6260 11988 0.642446
3982 13939 0.67008
7878 991 0.575583
16746 5700 0.317757
11818 3947 0.236433
77 4361 0.782908
10924 5377 0.506148
4418 6021 0.480147
5865 7647 0.354807
11637 17269 0.177836
15068 9022 0.0987632
6785 11743 0.61165
1865 15851 0.0789246
9248 12349 0.385811
5 4979 0.583063
11857 16467 0.115958
8797 11496 0.715246
3857 1741 0.916966
450 8289 0.818927
17587 2010 0.243728
6552 1150 0.764321
5151 7769 0.511831
6655 10457 0.973767
3304 6822 0.767577
464 8815 0.733015
14039 1013 0.393815
17427 9639 0.134821
6069 1374 0.477631
19431 3024 0.197917
7977 478 0.233729
3038 13022 0.207164
2652 2374 0.988088
2477 18206 0.523199
10880 12120 0.269732
8277 7828 0.299012
8397 12181 0.046865
9967 18112 0.7653
4923 9381 0.734268
16206 100 0.478427
2209 7302 0.0241571
11667 9472 0.498102
15862 9251 0.578943
2681 8318 0.900416
17383 482 0.915741
15095 15420 0.443105
892 8401 0.514253
4291 7755 0.0289444
4951 2236 0.927846
5673 10196 0.854801
1130 19648 0.0516555
5875 2626 0.611263
3699 12346 0.241194
14818 5448 0.696346
10051 335 0.555195
9900 7894 0.401403
8426 4855 0.192155
11017 7027 0.189159
14019 11348 0.0119578
7408 2834 0.147021
2862 9336 0.731544
17008 3275 0.446908
2821 7407 0.294342
9773 15667 0.390518
10022 15330 0.0400082
8668 3444 0.0455136
7987 3534 0.859834
9890 230 0.153791
3168 12737 0.533936
1311 15931 0.9058
10053 9219 0.722338
12087 919 0.541445
970 5063 0.59865
10326 19100 0.713068
2968 7805 0.499043
11753 5155 0.448939
12538 7287 0.44746
4106 2095 0.0802326
19605 71 0.356306
13971 489 0.296592
5975 5117 0.741914
5614 62 0.734537
2571 3850 0.94439
10633 9369 0.206935
2030 12091 0.514504
5272 6109 0.623863
18732 6240 0.723681
5483 7845 0.214289
5886 9244 0.156895
10962 18556 0.220768
14267 18545 0.0932844
9789 5089 0.181776
10272 5996 0.0866201
19146 2764 0.527352
6747 18396 0.0588971
15484 2651 0.45111
1756 18283 0.765507
14782 5423 0.258518
17992 3700 0.0992357
9988 10855 0.675129
17144 7381 0.722176
1849 5290 0.734948
6277 13029 0.388042
19535 1778 0.148775
2727 916 0.939218
10977 17868 0.152848
15830 11897 0.449168
9006 3289 0.310245
758 11932 0.995344
11098 14858 0.577833
11075 14221 0.0454392
7090 9042 0.511735
1162 9533 0.833464
18414 10040 0.393134
3196 19555 0.493367
10404 8726 0.0724917
5141 4399 0.497726
12659 3783 0.10471
2401 12555 0.0953628
10188 16624 0.0550225
18345 10121 0.149819
5096 926 0.307137
6700 1315 0.534387
12107 5739 0.0240868
17668 6541 0.952464
7169 3035 0.811415
17728 3337 0.709112
4800 8212 0.206409
5074 15737 0.769097
17303 18951 0.881458
5549 9669 0.734502
14412 9797 0.247374
2147 11786 0.785593
11365 6481 0.820979
12537 2646 0.216228
5922 18934 0.955833
15687 1869 0.832106
13104 11029 0.0680706
194 19832 0.804043
7161 7675 0.942361
1992 3651 0.948803
9044 1393 0.905393
5699 10525 0.391627
8645 12748 0.752023
11166 11364 0.474775
16544 18120 0.668879
6475 4347 0.751671
16308 3207 0.109545
9979 14200 0.0357559
4915 1170 0.0907912
8354 5590 0.463062
16275 6043 0.8066
14498 11469 0.769861
5264 7132 0.816129
7639 10469 0.82215
15112 7599 0.285439
3290 12432 0.26221
10524 1027 0.389471
10444 4209 0.18423
5859 9975 0.334419
8791 6041 0.893527
16300 17927 0.109362
1154 11170 0.207969
16597 8956 0.96967
8313 4799 0.658589
12546 5276 0.0809147
8123 11435 0.308292
12562 12891 0.192304
11719 9190 0.496823
12508 6505 0.994466
4471 10801 0.490495
3172 3810 0.126455
9835 183 0.569302
7998 4530 0.598947
9921 12557 0.746129
16957 13928 0.614471
3631 15808 0.932509
6705 4537 0.395501
12076 8382 0.287524
4515 17035 0.741094
9420 19099 0.352734
3100 188 0.491014
131 17419 0.10863
16878 2116 0.655258
6201 13577 0.771367
16572 11256 0.300959
17053 14383 0.39196
9732 15241 0.361979
3565 4192 0.00025694
4446 11448 0.559757
3736 583 0.92271
1110 2850 0.312947
4599 8887 0.439129
742 591 0.463467
8440 4502 0.656167
10479 1532 0.207913
5553 2757 0.39454
6618 16059 0.125361
1152 7846 0.0644107
13565 2053 0.930455
10082 9750 0.165752
3389 12803 0.0861855
11827 7036 0.0599811
9806 19091 0.742181
3249 16862 0.718558
3198 10529 0.247476
18505 14792 0.297758
4516 6302 0.867372
13397 15039 0.872307
2606 11624 0.502507
8013 4450 0.809185
19928 8180 0.312243
6442 2075 0.273852
10442 12417 0.325195
1961 754 0.792402
3813 763 0.651974
18352 11498 0.326937
13804 12661 0.0433102
9704 8789 0.342675
10435 9329 0.341261
1706 5587 0.346241
2992 17732 0.473716
1529 779 0.293566
1691 13293 0.761837
2399 14677 0.795459
2339 2733 0.04748
3058 4742 0.0884912
13388 12609 0.352959
19211 14652 0.842895
10066 6910 0.860081
11809 5394 0.268647
19668 1007 0.890878
15948 1487 0.116072
7996 119 0.417155
12621 18882 0.403472
10671 7387 0.209523
3919 11360 0.938959
18304 15491 0.693394
11967 3295 0.693746
8690 16379 0.0960965
5088 12697 0.279343
11836 4148 0.0253515
6268 9133 0.605663
12206 10917 0.103255
16257 14632 0.616313
12764 6782 0.806715
1701 8120 0.122785
7015 7217 0.875283
6910 18711 0.140883
7738 10783 0.0520475
10020 8292 0.022955
7769 7034 0.441385
8296 8240 0.498102
5311 12011 0.311635
3593 243 0.420724
2353 6921 0.0355615
3100 12609 0.926147
8478 19357 0.883328
7355 10263 0.159846
1688 3680 0.0143616
5658 5003 0.263662
10544 4840 0.684662
9583 1272 0.416156
15907 4033 0.614508
18565 8924 0.00741872
4202 5819 0.316266
107 4099 0.31448
18913 1710 0.00211757
6654 4004 0.96059
2324 933 0.628221
661 7483 0.192081
7490 14822 0.819516
14606 11312 0.79237
7471 1856 0.489191
11883 7044 0.348554
4190 2600 0.085666
9814 13344 0.401992
7991 7575 0.111425
16670 12694 0.366352
8304 11432 0.725404
10621 7252 0.619098
11176 14226 0.719331
11653 9574 0.438903
8179 5117 0.228266
14509 8995 0.969202
11210 2607 0.045372
9481 11903 0.42912
16139 985 0.843347
7629 6360 0.158559
6563 7484 0.0782182
5706 11983 0.585179
11750 972 0.472727
9279 12600 0.757799
2716 406 0.0112347
6547 3926 0.522949
19745 3617 0.648413
6728 19735 0.906495
1607 6277 0.342264
250 5706 0.377865
15993 7405 0.540704
7623 11464 0.425378
4374 19597 0.40633
732 15991 0.404809
12272 3282 0.0622779
801 4610 0.379665
3568 6127 0.414048
10356 18903 0.705326
11054 1491 0.976416
853 10959 0.421818
4689 2551 0.744665
8904 4408 0.487899
636 16697 0.522461
398 3562 0.597155
3563 17081 0.986441
315 3651 0.217214
607 10575 0.52336
8849 1271 0.986516
9412 2285 0.452482
9088 1813 0.82215
384 855 0.273361
11685 12217 0.293398
13099 11630 0.70987
4391 11678 0.680517
2202 5584 0.75568
8428 6379 0.716312
1412 11340 0.750771
9465 7860 0.569455
18764 10313 0.748543
5302 2723 0.188267
9961 2427 0.577697
11984 19277 0.756488
4672 5050 0.472571
10068 8799 0.591305
8046 9893 0.917122
3945 8938 0.151031
13507 19916 0.959578
11240 1671 0.417936
7802 1741 0.0175162
11308 1682 0.173532
5245 3230 0.0993613
3365 10453 0.776326
2623 16652 0.990266
8465 4487 0.971229
17800 3343 0.621808
272 8979 0.567709
14081 10554 0.677235
10719 2302 0.48928
2671 9609 0.163499
2307 14825 0.453558
11759 7470 0.596185
15046 11917 0.145102
12383 12198 0.413283
11440 17281 0.945672
5535 8081 0.347451
12482 12900 0.78433
18385 4105 0.334129
19619 3891 0.520517
10178 11312 0.402118
8677 6555 0.54447
11155 3107 0.723518
8682 2076 0.620894
19574 5784 0.838245
1436 870 0.594694
16466 10890 0.506624
3749 11984 0.834611
6466 17740 0.959101
1249 1181 0.666068
10895 10762 0.928965
3396 4084 0.61855
12405 1566 0.721066
10536 4658 0.441631
16467 276 0.459315
11584 14111 0.727333
12518 18798 0.818697
12764 16432 0.511454
10279 12435 0.0931889
9516 6049 0.245017
4031 10724 0.702786
5039 10439 0.921814
19475 9677 0.335672
11335 812 0.957406
13599 8670 0.136414
8728 2321 0.336886
6862 13905 0.12643
12080 12706 0.790643
7049 6884 0.70738
3307 5677 0.317757
17944 12537 0.269033
15500 12316 0.66738
8919 15794 0.105059
8958 7961 0.302675
8513 12596 0.327938
328 18727 0.719551
11541 11112 0.347311
17560 2121 0.989171
6668 9087 0.695972
12751 3428 0.871911
5742 4945 0.204775
5286 7864 0.820926
1342 7061 0.0882214
8291 2772 0.688355
2638 12348 0.556167
4154 17163 0.512232
7407 12546 0.617989
6142 15256 0.884375
11290 8512 0.854074
7121 6902 0.475257
81 12211 0.638246
5094 8314 0.422864
9968 1579 0.457296
4649 13445 0.893527
6391 10980 0.389566
470 5414 0.187301
5860 1695 0.497619
2176 3381 0.192413
8753 17780 0.224753
2577 10712 0.476275
9927 13393 0.89803
8654 18838 0.34796
7553 3548 0.205361
7468 19633 0.654095
6944 19379 0.0641716
5651 12107 0.347365
4549 10990 0.530081
11016 4953 0.391275
19182 5865 0.519347
15474 16496 0.310591
12590 3752 0.983761
13570 11309 0.825945
3924 5864 0.507631
9390 5263 0.0323083
14658 11588 0.593805
2757 8706 0.760181
15741 14548 0.217097
6808 9027 0.886212
6869 1839 0.0856953
14152 8503 0.945139
16894 5989 0.576406
542 12511 0.870732
10654 15835 0.023324
1242 6808 0.741986
7609 6084 0.287803
9451 14999 0.691176
12310 9502 0.294855
10317 2517 0.187119
5187 255 0.835201
12086 11185 0.0106494
19880 13185 0.0518839
1760 11206 0.183878
3 18758 0.803459
4939 2287 0.79163
7545 7043 0.330634
17486 6643 0.646652
17432 4623 0.969917
7899 15314 0.648855
6526 5010 0.182988
4085 13476 0.513749
11567 6448 0.0771795
11411 4698 0.855834
10210 2267 0.702286
2485 10581 0.835659
11177 2794 0.565946
9391 17289 0.00827184
946 9636 0.650912
17570 930 0.976348
11880 13314 0.526705
113 6459 0.38094
9763 8885 0.0959813
3270 11624 0.853271
14717 1957 0.362837
5036 6511 0.862039
15518 17442 0.342033
8294 7486 0.183724
19172 778 0.284475
164 8365 0.0607123
10423 6689 0.637522
4006 15683 0.660715
7055 17354 0.523861
11050 6482 0.683548
6391 5122 0.349731
9720 8601 0.878478
7663 1630 0.898956
12508 15172 0.431159
11470 12282 0.18976
16357 19638 0.918888
9003 1867 0.718608
17478 11494 0.415005
9470 1406 0.798913
12394 7715 0.843159
10966 11434 0.974357
7319 12322 0.00358954
5832 11309 0.069379
10239 13014 0.351168
3753 3802 0.84727
5750 1464 0.981135
3432 16748 0.784768
5971 873 0.277688
8694 13976 0.222709
6952 9282 0.349119
527 8008 0.997058
9775 17503 0.486324
18777 6384 0.494336
14892 14876 0.069306
7679 17772 0.0561361
15930 7186 0.687331
2573 2983 0.871712
10472 9904 0.469471
6252 11676 0.644753
8684 5475 0.691207
12177 6393 0.99195
2696 6228 0.0371586
10372 1133 0.203396
517 4856 0.495524
17917 7505 0.446316
10783 2582 0.188784
1220 747 0.682174
10887 10560 0.854951
1762 5145 0.3641
2696 6198 0.434992
1906 12595 0.685959
6619 11377 0.472733
4834 12524 0.389983
19031 9189 0.354851
7314 17582 0.981135
2620 17716 0.264824
1422 18541 0.878138
875 11004 0.327956
5412 9758 0.863482
1922 10108 0.211361
15791 1996 0.546354
1304 4098 0.94475
3260 8464 0.37547
7384 9330 0.272373
10343 11739 0.978348
7277 16437 0.459793
1603 17126 0.0763715
12227 17457 0.609654
4192 3296 0.54341
8875 2586 0.637648
4052 1312 0.756372
7396 3218 0.969126
8970 2904 0.952628
19532 8418 0.030756
1165 19964 0.80863
18567 11159 0.427693
7823 13954 0.625401
11327 1066 0.480569
12621 18740 0.65476
6562 5192 0.893582
11778 6513 0.154895
19275 13657 0.532795
4060 4133 0.837194
1363 336 0.249663
9640 11266 0.00292145
12960 16430 0.619138
12528 3971 0.278482
10634 157 0.714211
18012 15514 0.902828
8012 12779 0.595831
6288 9355 0.569289
5924 9620 0.460159
8754 10860 0.702475
8118 18491 0.686715
10091 2313 0.19046
13158 9405 0.0501994
325 9631 0.382436
3626 19287 0.181466
18896 1464 0.650208
12604 11665 0.515805
12399 484 0.533765
18406 4011 0.55795
19869 12490 0.548453
18590 9530 0.553822
6103 2701 0.261976
10115 8417 0.184388
8228 5653 0.741581
10434 14198 0.865245
10144 3553 0.216004
14161 5829 0.104499
4711 1089 0.5164
16689 5675 0.567841
7760 9383 0.391627
15697 8944 0.76427
13648 9227 0.104903
2269 12585 0.0449221
8959 11597 0.327939
14943 6813 0.816859
981 17365 0.771938
13845 10844 0.804777
647 5342 0.98196
9616 6867 0.418119
12754 7214 0.745011
4960 4503 0.11739
19848 4480 0.597372
11751 19279 0.878639
15351 16284 0.191254
14002 720 0.0668966
15542 1753 0.00438774
4489 15070 0.965874
4035 1956 0.29731
18819 14950 0.820003
380 1726 0.312373
16205 2279 0.615099
8579 9145 0.121762
2678 10808 0.595965
1603 13778 0.449127
4827 3449 0.632868
1992 7010 0.614312
4860 9866 0.988458
17851 7049 0.985362
13773 2915 0.966395
9601 14627 0.893395
8426 10331 0.676957
6199 4708 0.993498
2188 15060 0.942417
7329 4798 0.467549
4530 18115 0.793209
4819 8283 0.318966
4753 5478 0.48444
14659 10720 0.385536
17859 5844 0.246052
7827 13522 0.193624
12857 15114 0.0515405
6434 8104 0.317704
14963 16657 0.721717
16264 935 0.494518
4278 9293 0.252737
16032 9441 0.083843
10823 13065 0.493491
11151 1863 0.13963
7193 3077 0.393832
15694 6101 0.740866
11106 11796 0.643562
5466 19207 0.996345
16343 6082 0.135829
11228 1566 0.91004
18490 13009 0.992979
19713 1385 0.654987
4239 14738 0.473941
15427 18443 0.363649
5151 54 0.886498
664 2565 0.686841
2302 1604 0.48105
7722 19305 0.448026
15148 2550 0.468273
7561 578 0.838755
2067 9190 0.845483
17223 4657 0.742558
4341 5128 0.262519
16400 3625 0.278362
6523 13907 0.748421
6728 5634 0.472819
2638 9343 0.236617
4170 18584 0.499135
4845 1882 0.649758
9722 15102 0.411667
6043 1313 0.861867
18747 3450 0.247899
15367 10283 0.0292449
16482 17390 0.6651
824 11943 0.528929
1279 4195 0.509817
18794 11150 0.101327
5512 12181 0.248198
16317 1629 0.478767
4267 254 0.134427
2251 15484 0.674814
8697 6013 0.42941
14490 6903 0.318277
2870 2424 0.220758
3135 5990 0.509171
12630 1272 0.689531
17030 8473 0.00797413
3863 5240 0.414826
1258 7170 0.787886
1923 18106 0.696293
9342 232 0.27462
10873 5436 0.701489
10141 14887 0.268952
5968 10329 0.118601
8274 5584 0.775744
6420 3742 0.952353
13989 3969 0.668489
2633 17262 0.880229
11103 897 0.765734
3464 18753 0.537201
10521 1846 0.537025
3395 13931 0.450487
13365 7977 0.164443
11888 16305 0.953849
9765 16779 0.399635
3256 2815 0.670895
9172 3803 0.273843
2785 19118 0.260635
19786 14540 0.939796
15065 12468 0.335125
11529 16778 0.188124
15727 1601 0.947
8606 10498 0.733339
11964 9096 0.220249
9985 12274 0.254031
7373 1505 0.548743
2417 6957 0.584544
18304 15863 0.654817
3113 3864 0.727997
10089 404 0.942832
8404 6964 0.535333
3431 3486 0.025268
3485 11689 0.848768
17243 7632 0.715585
503 11651 0.718387
2135 12241 0.288568
7022 6570 0.768616
4434 6071 0.700327
1026 19239 0.12984
12093 8882 0.421516
11551 19731 0.0382369
13749 789 0.731637
19329 7099 0.936121
11444 17490 0.100089
17811 10687 0.429865
375 17601 0.206043
16389 12747 0.157564
12762 6120 0.232266
10224 5596 0.559045
13680 13913 0.138896
5818 754 0.0684384
4820 18912 0.380973
2916 14950 0.377127
6439 16592 0.308334
5947 6768 0.96472
18470 571 0.0623862
7053 15625 0.138999
12958 13419 0.727694
4945 11662 0.435559
9143 1612 0.301914
9384 4519 0.0228749
5928 3282 0.29662
12514 12140 0.710977
7671 7042 0.263362
272 11425 0.131984
6051 16393 0.285296
10188 19756 0.923093
1326 5787 0.87367
9454 193 0.201682
4062 10066 0.418064
5312 11705 0.98022
6176 1235 0.647363
5734 1150 0.908736
872 4203 0.711183
2599 12754 0.582798
504 19551 0.206764
2953 15849 0.774219
6697 3959 0.979705
3364 1365 0.488172
12642 4010 0.5573
2412 15216 0.718435
9389 19408 0.423863
2600 1549 0.262174
3513 5209 0.852772
5204 4957 0.400711
18350 5339 0.274123
2774 10530 0.990995
5524 4180 0.0551687
5257 17156 0.900425
6989 6442 0.0678393
15435 9861 0.171171
136 9397 0.503612
2130 463 0.481878
15400 2818 0.833484
19228 5976 0.846587
10179 6590 0.0697477
7828 12685 0.471765
13830 10268 0.626768
12086 4457 0.330731
11551 8516 0.268973
12226 5335 0.915141
4014 3042 0.484254
11739 11227 0.336545
2829 8714 0.980871
1547 768 0.86544
2266 1814 0.260355
6498 606 0.450608
4350 1659 0.643586
3390 18379 0.716567
3747 5574 0.323703
5663 6021 0.000481842
10821 6906 0.581862
2881 18997 0.0434855
8433 14173 0.802585
14585 7761 0.196666
5713 9150 0.887663
6470 13838 0.32857
5172 4088 0.902098
19904 1729 0.0566482
7597 11485 0.606265
2825 12677 0.231458
2599 7402 0.85177
18154 6857 0.171892
8887 15832 0.663631
19154 8057 0.168425
1870 2968 0.919951
13909 2620 0.0605015
1615 2473 0.32997
17850 13511 0.25001
2020 14405 0.566552
7259 6445 0.31302
338 15970 0.310093
6881 12323 0.267125
18465 5179 0.0428808
4668 10380 0.698586
3641 12012 0.431754
6331 18294 0.141828
12316 1257 0.0476519
9901 8860 0.367346
16394 2621 0.770952
13983 3561 0.560781
11440 3810 0.870113
15344 1876 0.96611
10038 19071 0.908041
7002 13024 0.0558309
4479 8421 0.4568
10902 17731 0.106714
5805 17242 0.182134
15638 3969 0.239913
12205 6041 0.400165
18933 5641 0.142205
10612 12599 0.685576
11869 16375 0.094212
5462 2701 0.623374
11813 5676 0.985394
16615 5178 0.47216
7951 9048 0.25024
4631 8628 0.534189
11158 7222 0.963981
16661 15243 0.810639
6576 7465 0.00345758
4764 17910 0.189549
4824 2036 0.518968
10563 8225 0.848154
4605 4800 0.613441
5390 14591 0.401616
9326 11852 0.96691
8161 6241 0.779966
5658 2408 0.902688
9379 5700 0.456014
11089 8981 0.294556
3704 3896 0.567365
11576 6067 0.851672
10134 10572 0.427742
8624 3493 0.460662
19310 11649 0.903697
1689 12577 0.400583
11583 10628 0.0405497
7753 5924 0.0739712
4430 10517 0.34382
9760 475 0.843687
15982 4730 0.0964465
9620 9800 0.591488
7568 16730 0.917335
3926 2654 0.257711
17633 9938 0.630723
14636 7070 0.117838
16466 12654 0.613435
18783 5726 0.855575
8244 14654 0.520487
8466 8726 0.496989
7959 6829 0.457825
15283 7715 0.355795
1774 8467 0.146136
4688 16879 0.466606
10163 7690 0.522606
10136 11027 0.160121
6218 15063 0.208274
2905 2353 0.349119
5766 5293 0.053271
1097 13810 0.844815
1374 19569 0.864486
8331 850 0.409111
4728 10479 0.362713
7994 17435 0.118533
11084 6072 0.365658
7355 13664 0.963754
12259 6373 0.254804
10881 5866 0.212919
18019 208 0.154895
3509 6176 0.903941
14678 11615 0.679497
17927 3062 0.975548
19300 4336 0.895416
11716 7769 0.447637
1720 4505 0.447942
19594 460 0.306926
11923 14672 0.457828
4879 8110 0.884226
7233 12727 0.130422
2133 9907 0.739752
10709 6908 0.0627065
15768 19795 0.970883
5411 8559 0.0119534
444 7108 0.18735
109 12384 0.0212251
8678 12126 0.334127
15175 17971 0.535697
18870 300 0.505479
7489 17764 0.272152
14970 10139 0.924451
3657 1083 0.73965
1093 381 0.618378
16124 9583 0.208251
11184 2303 0.968711
10242 1268 0.546402
12333 6173 0.926236
9461 5432 0.390489
15739 7430 0.853177
12224 12189 0.737613
3357 2487 0.777406
2273 9136 0.538864
10120 16435 0.954641
4106 2968 0.302369
7255 10717 0.747403
6971 716 0.776911
9846 8159 0.965874
11402 8452 0.128438
7472 5737 0.973535
16671 1999 0.852443
10525 9796 0.99195
11174 3532 0.487441
5185 18489 0.560975
7923 10939 0.695749
8754 5897 0.189874
19986 2366 0.0938694
18809 17120 0.359939
6400 6250 0.230913
2471 156 0.519803
11279 6943 0.866741
11075 14682 0.170794
14863 18360 0.414699
3882 1906 0.141853
2892 14718 0.248846
5495 10691 0.714343
19172 14712 0.112405
8615 2223 0.49594
10655 6339 0.262174
9816 5537 0.181631
10399 6575 0.286221
19372 7112 0.29402
18657 5372 0.0332545
6797 13050 0.543295
12296 803 0.676475
9968 10017 0.946742
255 12655 0.00532544
11162 4055 0.47173
19359 4195 0.762728
117 6461 0.9793
6139 7070 0.180659
14046 10720 0.280647
14319 13798 0.336944
6653 18589 0.986624
12858 5823 0.492538
2664 12482 0.762132
4073 4991 0.0267272
9363 2311 0.145972
4004 6011 0.14119
515 6968 0.967373
5646 9515 0.225511
6868 4875 0.957483
3081 13221 0.444977
6610 6517 0.994847
11296 2807 0.057698
2883 8310 0.103237
12360 2526 0.505141
16733 16126 0.00236288
10204 1042 0.809337
12890 14823 0.82965
5779 14635 0.218011
18423 14513 0.450951
1022 8739 0.119135
15471 7047 0.601194
7992 12005 0.789846
14070 6636 0.581975
1917 9981 0.688355
6134 12658 0.505594
9922 7918 0.0882114
12167 4590 0.754174
7194 19320 0.898894
18752 8986 0.867487
10612 5627 0.775493
8271 10772 0.644548
12495 7781 0.997943
5607 12724 0.738551
10150 7305 0.637648
9437 12899 0.209433
7751 5589 0.852935
8098 14612 0.633977
12379 3293 0.966323
226 3793 0.450463
8315 1433 0.0994919
10383 6214 0.303503
5851 1547 0.673631
7422 11607 0.684241
14747 8349 0.670002
1732 18188 0.903109
6051 7676 0.399541
10829 12642 0.796965
12056 18040 0.891523
7057 11974 0.322724
696 10329 0.30063
821 13736 0.0876924
13252 7003 0.0488739
4766 3896 0.548636
15731 11810 0.313366
7767 12192 0.294999
5177 9623 0.772513
6417 10540 0.962038
391 9114 0.253112
15220 16998 0.636621
17601 10424 0.382878
10506 17154 0.738159
8525 4265 0.661003
19271 4007 0.6957
383 12797 0.269947
7214 14505 0.536199
3454 12486 0.0469902
18130 3222 0.6033
15343 16912 0.516803
17059 17001 0.408427
7414 6383 0.431765
8201 16323 0.798913
8796 611 0.432103
1003 13944 0.186258
12454 4113 0.353932
19594 4248 0.837617
1541 5629 0.758135
1831 8506 0.392208
4780 2429 0.433226
10742 1946 0.615589
3944 3684 0.507102
19580 17090 0.356165
19271 8146 0.917257
1035 8195 0.0898162
14537 10023 0.822005
3496 9552 0.270818
14084 10878 0.0731259
13486 7853 0.109082
9519 9814 0.845607
7213 2149 0.566393
7266 7827 0.560604
16946 11379 0.103653
15554 1272 0.796764
16450 6833 0.225481
7623 8626 0.26337
2200 15896 0.0369179
10090 3262 0.444977
11864 8607 0.763314
6690 1661 0.0175054
6476 15534 0.149872
9763 10094 0.374949
1748 19398 0.332161
19587 2230 0.00267581
6387 1466 0.502376
8843 6257 0.348337
19004 17258 0.276442
19157 5511 0.475521
19036 17211 0.815842
13800 11642 0.633993
7148 12647 0.900098
10913 11409 0.236676
1205 8779 0.347203
336 10140 0.659762
7607 7063 0.6699
8481 9124 0.575339
3002 2016 0.00893502
13151 5822 0.862234
4083 2410 0.547637
8254 18819 0.43751
10205 14122 0.462437
6847 277 0.901991
11235 9762 0.0724456
9709 523 0.515805
9089 9688 0.118625
8144 1159 0.424725
13612 14489 0.77835
3940 5408 0.69337
12004 3953 0.475822
8274 5299 0.784312
5929 10192 0.00373237
5871 8243 0.882716
12505 2956 0.104499
10210 9887 0.987169
1818 16269 0.718096
9855 3341 0.328618
9818 200 0.973359
60 3080 0.603287
3626 3178 0.115147
4734 13575 0.799176
3328 2491 0.740432
15485 18221 0.768033
3465 14249 0.0956611
12235 16058 0.545135
3317 14710 0.314963
3561 7390 0.550923
7170 14346 0.985748
4492 5578 0.998224
11162 6259 0.157949
13373 10789 0.406943
3508 9859 0.264966
8800 9835 0.82815
16196 3413 0.9868
1189 7835 0.422869
19635 9852 0.423506
2497 18035 0.321292
3494 2133 0.382422
6086 13670 0.726827
12441 8410 0.474001
5804 6987 0.432217
18146 8054 0.0896967
3941 18648 0.102743
19948 1732 0.953085
2918 149 0.0390257
3526 4780 0.937757
2256 13541 0.339764
4828 14707 0.438823
18353 7798 0.309459
8197 3336 0.899963
2691 12220 0.345535
5020 8719 0.164473
2169 14746 0.587559
10218 10854 0.942544
8480 7559 0.998751
6584 10016 0.259301
10861 724 0.0721077
9655 1245 0.0400082
12415 9298 0.255819
2138 12688 0.390111
2335 19685 0.0827484
18436 8957 0.280509
7954 4047 0.365976
3343 13313 0.156496
10937 9758 0.427277
9651 10854 0.429306
13234 10844 0.823366
4050 9485 0.74451
7395 4448 0.956982
16444 6221 0.802009
17506 3290 0.350413
6349 12017 0.497853
5530 18601 0.939186
4292 17212 0.292911
11545 15016 0.0487659
584 1672 0.948262
17162 2094 0.837194
10195 7675 0.667069
11076 6580 0.00698779
5003 11032 0.952091
15208 6861 0.195756
7854 11190 0.360485
13525 3030 0.150183
4977 7174 0.527564
9431 13700 0.986538
18824 9630 0.289733
14852 10820 0.218099
4642 8788 0.87274
2221 8864 0.172113
14062 3081 0.842372
12478 8791 0.477105
11649 3078 0.145894
6283 12184 0.542018
406 12615 0.0157038
14583 972 0.0554111
8511 2673 0.358913
5456 8931 0.465915
561 5394 0.400213
6149 8791 0.284806
2332 2176 0.145202
7449 18952 0.038623
17652 2931 0.431115
15643 14538 0.459839
15812 10131 0.519893
18693 17670 0.985266
3184 12024 0.0669245
5825 9953 0.102802
1877 1404 0.357089
15346 246 0.671475
7535 9931 0.308963
4481 13013 0.0252207
16522 8951 0.0342686
1639 2046 0.903237
5707 6486 0.69198
14905 1668 0.779325
472 11000 0.482083
6100 3831 0.807537
476 5666 0.85718
4789 12920 0.871029
1609 15395 0.213119
5517 7162 0.979022
265 8492 0.132378
3974 1956 0.35438
6884 2531 0.874689
4584 2814 0.969844
16624 10465 0.385836
13622 9988 0.857847
7778 10905 0.11677
15486 5641 0.78615
659 3907 0.0604778
11336 18917 0.95401
15281 901 0.0322516
12464 12366 0.964978
416 2509 0.476072
10487 10537 0.868714
1301 1637 0.0490953
4691 11978 0.954618
14966 1616 0.506837
9236 14735 0.166616
18872 18165 0.340953
9366 7599 0.260582
4788 6973 0.913056
18594 2483 0.513353
11642 9438 0.943763
441 7605 0.062136
3524 1635 0.217742
10035 12032 0.827989
17523 10196 0.17417
7177 12852 0.704352
3552 3908 0.377069
9736 1409 0.655419
6585 15570 0.138919
6059 112 0.423627
9010 6840 0.0601869
8224 113 0.856172
493 2448 0.0120509
6262 8745 0.166769
18040 9610 0.450964
14236 2367 0.867036
5809 10920 0.221241
5174 4037 0.169388
10223 17733 0.795459
19563 7971 0.624236
4928 16288 0.641666
4843 12077 0.148796
15044 3221 0.342659
11362 9974 0.394319
2695 17608 0.849329
11177 6202 0.421085
13887 17116 0.538978
3259 5253 0.876468
16508 8236 0.100713
15553 8374 0.263835
2360 18025 0.272705
11192 13466 0.186736
18453 15409 0.547277
5397 8041 0.567068
15158 5975 0.793093
6441 10176 0.507733
15154 3856 0.439906
2822 6293 0.00495504
9113 15357 0.378917
9527 14613 0.84224
10974 1051 0.380177
14339 17363 0.0794677
4607 11024 0.694179
1254 10241 0.936907
19738 4894 0.48721
6395 6440 0.187673
2797 308 0.541648
1948 1857 0.376114
16206 809 0.708764
1065 12204 0.618806
14449 2175 0.941591
11277 2134 0.992119
16400 8410 0.132447
7057 5406 0.480237
2471 4632 0.151216
2552 6053 0.0439608
13819 10060 0.785795
2043 19323 0.763887
4116 3447 0.636804
10963 9765 0.39735
10074 1123 0.395386
4090 7644 0.596139
7721 7749 0.497987
16420 8442 0.762072
9965 1924 0.315598
19381 16289 0.325479
18361 11001 0.246574
13620 17916 0.263662
3873 8304 0.6654
13577 16272 0.298946
1791 15145 0.556142
6814 11435 0.0181602
9269 2183 0.820236
15288 11760 0.584998
4860 883 0.325479
9851 6359 0.148742
893 6573 0.425451
17104 5489 0.247114
366 1668 0.255755
10539 8220 0.475978
4359 2188 0.692969
15514 6118 0.655408
12224 1526 0.449226
5055 2765 0.612043
9175 7612 0.922626
17231 1095 0.514504
8090 4755 0.0959034
5921 3674 0.871576
19082 6415 0.476716
2240 2035 0.995684
4166 1706 0.309827
823 8216 0.304813
4910 12984 0.594964
11522 291 0.289285
11919 14603 0.137851
6214 13503 0.305893
19944 15300 0.80013
8189 3059 0.110563
3968 9384 0.575259
5333 9260 0.176527
11202 16334 0.0406006
2698 1638 0.328673
1443 9723 0.17451
3628 1462 0.4154
12712 7365 0.0334438
3730 16906 0.0859889
12279 7937 0.666177
7619 3442 0.662888
6457 3327 0.0869578
10112 17208 0.0593967
533 4537 0.694417
8597 18332 0.448173
14069 6671 0.427763
3433 10850 0.0672454
6283 17118 0.0195257
5168 9896 0.208028
3632 8961 0.614088
8093 3589 0.947379
1525 9305 0.0979736
18499 9514 0.12506
4973 2658 0.202792
3045 3142 0.680517
861 18039 0.256052
14013 18653 0.934211
9113 12557 0.288669
16234 16322 0.241655
18812 3854 0.852988
3027 14565 0.132607
13562 9354 0.117729
7743 17733 0.0141288
17996 5005 0.297828
4425 5192 0.637985
11196 15775 0.0506387
8684 6497 0.206
13703 4491 0.475124
11285 11307 0.0450977
1297 15084 0.97837
81 15239 0.28074
11904 3319 0.438985
2410 8359 0.619141
12546 458 0.798586
1555 5945 0.329121
10934 9677 0.451149
12509 2085 0.441104
5264 8420 0.270078
1999 15600 0.560329
14148 5242 0.604284
6015 7609 0.997977
5118 8348 0.701566
2182 5026 0.111712
4654 3803 0.463312
10558 12394 0.384252
3086 6589 0.966563
18610 3989 0.331969
11530 4586 0.280331
648 12629 0.443727
2283 9875 0.297285
9443 4944 0.448371
12069 2407 0.894482
16562 6049 0.789902
9102 7339 0.221197
11409 6804 0.469741
30 12637 0.843684
18321 7105 0.957732
4681 11038 0.67413
8289 16081 0.987391
9072 612 0.189478
2487 4905 0.202959
7914 13969 0.731054
12405 7682 0.0380515
16311 10784 0.92323
10098 16614 0.184482
17370 14572 0.8419
10011 5983 0.596111
6709 853 0.520759
12916 16821 0.0664207
7369 8015 0.685825
2720 7867 0.884237
11989 12852 0.576267
5615 11003 0.216228
8676 3857 0.081789
10663 11303 0.798896
4197 14204 0.610696
5789 295 0.917335
12277 4913 0.954385
917 3396 0.00113806
4246 3796 0.616979
10602 6622 0.231385
8282 7466 0.387242
19644 11777 0.383246
3202 9957 0.864015
6098 3356 0.290469
5855 1951 0.774184
225 15461 0.667865
11061 18859 0.488765
3476 6474 0.139986
17289 18821 0.090117
12189 19349 0.315886
8643 7958 0.761009
3621 6283 0.297291
4065 8464 0.0154754
529 13159 0.0381273
2656 2303 0.728901
6736 5590 0.765661
3372 10807 0.75781
4416 8882 0.656247
12245 9709 0.219738
1160 4397 0.233925
1577 12087 0.212358
2369 3315 0.899286
3476 8016 0.756488
15215 956 0.597641
7707 3928 0.521839
8355 4003 0.944265
4065 6248 0.315214
1402 8398 0.699423
8742 12643 0.983689
11560 17534 0.685013
9596 5947 0.246115
12848 6480 0.510356
1873 126 0.0523804
10736 6636 0.797842
4577 4447 0.526438
2661 11592 0.51707
2851 16557 0.0089007
11964 124 0.979262
18388 5211 0.843013
950 5907 0.996099
17621 5828 0.0754778
13772 9781 0.424032
7008 2974 0.617826
11196 11573 0.377671
9222 3810 0.669438
11569 6588 0.71089
4458 91 0.8419
6519 17934 0.999002
17665 18040 0.789139
5063 209 0.326834
9470 12882 0.39556
9982 18796 0.616363
17643 9607 0.729967
8432 401 0.972271
12257 8157 0.771987
6855 3773 0.707374
12676 6715 0.364901
9090 14839 0.116442
6174 14616 0.499135
2153 15970 0.645233
2156 10273 0.468987
9537 19608 0.644715
1613 6971 0.712471
11832 11556 0.930515
14634 5441 0.894633
4038 10195 0.302531
6782 10284 0.882313
17142 16187 0.783382
5586 9086 0.635914
9803 7381 0.444041
3156 11353 0.166231
22 7210 0.514177
1482 8574 0.97184
5413 14878 0.12133
11475 6397 0.343423
13965 5870 0.509004
1418 8037 0.0280756
13441 6115 0.104059
7683 2141 0.742317
14780 12610 0.941359
10074 12547 0.623374
15788 8340 0.121123
5633 279 0.766064
8815 10285 0.668713
14568 7276 0.524146
7914 17474 0.0217445
19148 11036 0.0828744
13450 4134 0.735703
19806 13722 0.626499
9338 3246 0.506786
6825 3997 0.620502
5217 12717 0.245511
8070 3934 0.186846
3530 5639 0.357985
9385 19947 0.566898
7260 4757 0.38339
7130 9522 0.455787
7217 7343 0.878912
10948 4493 0.952799
19156 15751 0.309352
1211 14860 0.539022
18779 7280 0.789855
9450 295 0.647179
12742 11955 0.114612
1297 10793 0.730525
19051 8561 0.700126
4315 7748 0.482358
2258 11349 0.871576
3989 736 0.00511007
19212 9948 0.546056
168 12762 0.155037
651 31 0.240849
12210 17142 0.597151
492 10516 0.72745
4339 7145 0.229221
10666 7603 0.401992
10159 7451 0.57073
925 3245 0.170135
2988 17446 0.958617
1205 7095 0.304843
1981 7320 0.861777
5870 10464 0.387724
11925 6179 0.69145
16067 3867 0.527483
15831 19610 0.287877
8972 10489 0.591578
10339 11102 0.347329
17571 10495 0.68212
6368 8958 0.0868008
3448 3307 0.110261
3054 18799 0.941228
10426 5409 0.863975
14458 13582 0.497093
14772 16122 0.644916
1558 817 0.40276
2479 19267 0.144835
11157 7930 0.672649
2738 11515 0.227423
5657 16041 0.617436
15160 17616 0.681
10175 10286 0.505877
8335 14685 0.402118
6014 6363 0.505099
8655 17760 0.593461
3327 13326 0.119124
11349 8590 0.584388
10865 9537 0.543132
18218 12522 0.0680411
4125 1551 0.939866
16805 7857 0.336394
7799 13952 0.210942
5572 3016 0.858193
2839 2983 0.832091
6342 376 0.0165013
11159 16344 0.569447
10342 6784 0.580279
10200 8401 0.216346
5822 4608 0.0620783
15170 3973 0.359453
9156 13722 0.855469
8160 18230 0.672686
10597 4990 0.629371
5220 10450 0.439736
5582 3094 0.636243
3255 4181 0.753539
8225 10452 0.248391
6818 11648 0.65088
1899 12374 0.967138
681 15619 0.0176024
10027 4284 0.464475
2344 4378 0.959128
15650 11413 0.358886
4213 1255 0.290137
9283 18324 0.205509
3062 6098 0.317655
10671 18146 0.934507
4417 8413 0.198142
10079 1517 0.818751
11795 5013 0.38043
9405 719 0.207464
10694 1982 0.885881
14295 7409 0.153128
6731 5069 0.954696
8990 2073 0.199617
15012 8945 0.560185
7611 19871 0.894894
7456 6398 0.982131
6750 2299 0.498102
2105 5365 0.722124
3223 11811 0.543172
11625 10896 0.955924
3968 16890 0.816351
4662 3105 0.905138
18762 2056 0.917108
13406 12731 0.576052
4098 7654 0.248846
877 5131 0.891873
6086 4559 0.535697
162 9324 0.600893
5560 3721 0.464144
18046 9756 0.0507814
6975 16335 0.690818
15044 9257 0.459486
11523 19569 0.100914
10827 9169 0.301347
12226 2909 0.966204
8267 3993 0.908856
11659 8489 0.286838
227 9603 0.505566
6501 19073 0.250456
496 12882 0.423198
4722 8348 0.504227
7161 7447 0.293218
4053 12396 0.0591846
4796 747 0.875087
4245 16336 0.384583
4677 3437 0.410782
299 13548 0.527383
4371 7026 0.793183
2403 19833 0.834585
19471 1848 0.0796218
2333 18902 0.391775
3831 9185 0.408033
10628 5922 0.43637
11097 18101 0.431773
91 19439 0.481401
14321 12918 0.251929
8662 1450 0.707869
8414 17090 0.963981
16869 85 0.476154
17070 7406 0.203273
15734 3153 0.220196
101 2507 0.105784
5595 4224 0.612056
5038 11373 0.217285
13680 14024 0.57381
61 14566 0.329423
9305 4006 0.195697
2261 5544 0.619406
15272 11536 0.995578
11746 8818 0.476716
11180 19819 0.344797
4928 18752 0.5467
7404 11339 0.986516
2847 12488 0.173935
5075 442 0.184989
19088 18868 0.0568241
4243 8343 0.744665
495 3255 0.494864
11058 17596 0.169739
10233 19899 0.0866201
14884 8834 0.12984
13957 19342 0.732704
7448 15613 0.724044
1895 4393 0.679057
11138 918 0.684769
441 17908 0.268387
8144 3410 0.510159
6083 9534 0.500203
7212 10768 0.882093
7189 4106 0.0713475
192 10329 0.318666
7848 2483 0.73191
4440 9710 0.363545
16401 14087 0.490346
18009 10556 0.111425
901 16465 0.896861
3564 6925 0.723421
2871 711 0.0143616
9956 19436 0.705651
603 14967 0.260946
16692 15487 0.938161
15209 5644 0.0486293
6515 673 0.354131
13339 16309 0.215969
10856 13895 0.0923343
608 5105 0.608111
13659 12109 0.485831
910 2068 0.121533
7786 15144 0.491047
14745 10230 0.147832
8258 14747 0.67476
11888 11749 0.515915
9035 10887 0.0360869
9538 2996 0.195149
13544 12295 0.833763
4055 7817 0.048756
5245 16380 0.42337
10260 19407 0.820215
11979 4859 0.239968
32 11457 0.95928
10865 826 0.204001
12667 11240 0.643526
16522 2301 0.395541
396 10341 0.326756
2270 15661 0.62598
13279 2947 0.740363
9992 6913 0.00900308
3920 4621 0.256534
16684 18991 0.470565
388 890 0.345039
15533 7340 0.14403
17662 3089 0.632601
8701 422 0.206409
11196 10739 0.427587
4289 9091 0.91775
6962 8269 0.835346
2647 448 0.684433
4628 15578 0.106384
10074 13165 0.655156
409 3170 0.478073
8197 17560 0.719753
3579 12631 0.274601
16513 13942 0.507317
9044 11399 0.476275
19646 16621 0.233807
1313 12465 0.378725
13920 4427 0.461656
4017 413 0.217339
10035 2710 0.489453
263 12448 0.22733
3305 6081 0.00849928
8618 8446 0.830468
6630 11769 0.309794
9167 19417 0.377189
6326 2438 0.495622
6883 18767 0.339111
7278 7790 0.99635
14928 1010 0.230671
11477 849 0.0265324
3445 12204 0.376177
3253 549 0.995817
17015 2146 0.779261
8410 16938 0.381083
6881 17111 0.00969185
8260 7005 0.834401
10509 7515 0.283685
680 4358 0.728788
11364 1877 0.996638
420 12328 0.923523
7235 10316 0.648648
6011 8347 0.169761
3408 6151 0.966265
9791 5718 0.700585
18476 8258 0.393264
4785 7557 0.647862
12612 12558 0.0526778
10130 4413 0.727402
12145 16367 0.547977
11706 2261 0.28347
4141 6810 0.172604
1383 14122 0.45498
891 9877 0.416499
8651 9840 0.240585
8010 15398 0.472337
287 19467 0.487441
9826 8120 0.246353
6427 15648 0.861782
3903 6331 0.337553
9069 9959 0.0780946
4486 11916 0.32968
11753 14535 0.453224
8528 8800 0.963199
13778 5303 0.62431
7844 15213 0.685204
2586 18831 0.803417
9820 8166 0.28231
6161 6371 0.907381
8802 2387 0.231873
15832 17329 0.530851
2997 797 0.643195
8757 3594 0.441379
4491 7627 0.145904
6738 12513 0.321482
6651 9428 0.537087
4683 7902 0.118505
4816 4398 0.671665
24 966 0.883367
19270 6028 0.152486
1711 16552 0.765098
18199 11939 0.339883
14747 769 0.722517
13310 8237 0.326997
3182 8031 0.653018
9391 4476 0.0979736
4158 17982 0.92583
9952 1442 0.840559
2402 12099 0.913048
2408 3056 0.0564079
15293 1243 0.822109
19237 11543 0.467229
432 15565 0.0814255
7722 7292 0.460278
2148 19674 0.816968
5936 7508 0.303752
5485 11047 0.461828
8864 14254 0.247374
11559 6804 0.267125
8834 10900 0.642177
1511 10947 0.532776
3085 1873 0.848706
19680 10182 0.624059
1104 19700 0.49061
16951 3353 0.938052
11411 11983 0.568212
17220 6865 0.35688
6535 10579 0.716307
2806 6320 0.467206
134 492 0.772979
10341 5740 0.671372
10183 7669 0.116072
3229 19009 0.575656
9530 4900 0.1495
14198 1014 0.110776
3442 915 0.83907
2670 5338 0.943545
9999 5166 0.764211
8786 18822 0.840292
5044 6180 0.790967
18662 8874 0.472404
17991 16346 0.326259
6463 868 0.0631716
10033 7938 0.561699
2647 18255 0.332644
3543 14517 0.474145
3664 10637 0.682956
835 14264 0.663328
11417 7475 0.497397
4801 975 0.999089
8511 17747 0.653507
14664 6225 0.0649913
5498 5508 0.292962
1313 15972 0.962102
10834 4490 0.0138403
8056 4895 0.462206
4430 10608 0.158914
4106 327 0.933463
5139 6525 0.265802
7964 1538 0.347171
9714 11144 0.149235
8524 7146 0.122097
14757 4160 0.0290907
4718 8130 0.729871
2483 10334 0.602017
10281 9210 0.893565
1554 2366 0.0320048
4558 10867 0.499135
2904 14543 0.882691
1738 19179 0.418815
7829 11606 0.105468
5130 19311 0.60935
1386 9119 0.886088
6773 12507 0.810898
1349 2250 0.189725
12150 8872 0.34609
7751 3519 0.168142
6915 2562 0.786067
7753 17623 0.794287
4274 9094 0.218656
3278 13256 0.277331
7103 13245 0.447129
13460 7296 0.47575
2991 10333 0.883657
1322 165 0.533616
16648 8085 0.684812
3630 2060 0.785904
10735 12388 0.151312
775 19630 0.0175162
13198 14786 0.649488
9160 17577 0.716312
7293 16017 0.681537
13678 5513 0.342826
10048 19796 0.76736
10385 14307 0.00816244
12073 11357 0.644472
783 2994 0.50291
2779 18402 0.380764
13661 10053 0.940308
19617 2939 0.713774
13494 2235 0.876834
11314 7678 0.328369
1766 11121 0.975292
12449 13659 0.141791
727 8166 0.532352
5035 16268 0.444234
3573 6946 0.876543
1161 18252 0.390564
19538 12049 0.815435
5008 1891 0.638307
8494 18238 0.44725
13454 5856 0.0672765
3093 15419 0.763532
15693 8031 0.0484872
1797 1410 0.76521
7205 8973 0.770319
13615 12285 0.979555
8044 4710 0.902316
5509 14979 0.00994143
151 12878 0.326997
4715 16040 0.0309082
8699 3137 0.668729
11326 4964 0.970681
8171 6861 0.248599
12392 5431 0.469601
11801 6996 0.846128
17488 4576 0.30458
14639 9403 0.20216
2718 5388 0.73018
9487 1707 0.573537
11329 2976 0.528936
5844 12282 0.781484
4897 10775 0.0684422
2531 5746 0.594317
7050 9840 0.116716
10204 10043 0.69514
7805 14535 0.219062
11054 1439 0.733048
6566 1688 0.823457
3743 9205 0.635554
8457 4722 0.803417
7836 963 0.848154
8702 8611 0.180922
183 12008 0.0730223
12643 9236 0.298593
13058 19067 0.571889
13328 7917 0.714559
19990 6596 0.0212708
8043 4913 0.385811
7390 10916 0.689898
11177 2268 0.0429112
12473 2460 0.861291
4197 4141 0.0501932
94 6686 0.672939
4915 6700 0.093296
8472 19620 0.477947
12778 3385 0.569131
13573 4607 0.497193
6838 15502 0.735539
6541 9191 0.959578
17405 6 0.696093
2811 2677 0.788482
5954 6413 0.0329741
2488 4548 0.486595
16424 7860 0.807812
17772 8634 0.584162
18991 3509 0.771646
3445 3004 0.675
9930 12512 0.00533021
8699 9249 0.0678463
5053 4167 0.0916098
13424 3873 0.469831
7335 10912 0.115454
2099 6732 0.282108
4417 12174 0.400165
5823 7954 0.909878
180 8589 0.832318
3425 8974 0.624363
6506 8617 0.0341945
5326 9510 0.0271658
10379 14108 0.308965
7857 809 0.913366
12171 248 0.95528
3882 443 0.542182
408 6868 0.930722
1345 6989 0.898014
12277 11633 0.451408
19409 10592 0.136363
1075 5159 0.350304
12451 15077 0.0496176
469 3116 0.600663
19405 11703 0.82197
834 354 0.517156
4209 6404 0.807145
11568 11310 0.636274
9933 7578 0.135229
7042 5011 0.450916
1162 505 0.450175
9362 10377 0.562855
4567 12384 0.685787
10072 223 0.885608
6420 8143 0.281438
19738 18702 0.307522
7053 3474 0.709861
12045 11287 0.579694
9499 5388 0.630897
10026 13532 0.0079802
8591 10653 0.127226
4347 13372 0.561006
19678 7666 0.999925
9142 11625 0.39415
11228 6699 0.336619
5557 18115 0.0576866
18386 11261 0.880001
1067 7137 0.768922
12026 3192 0.911737
8266 6238 0.512384
2873 19711 0.277772
1172 3498 0.447986
3085 4801 0.479837
663 5841 0.0472526
11782 8857 0.403491
6616 9988 0.0807506
9976 8237 0.820058
5680 13754 0.584686
13598 3805 0.452645
8330 1997 0.1467
8550 15734 0.794698
7248 13057 0.492411
6312 16594 0.469798
11671 3421 0.605228
18203 17343 0.421287
14188 5834 0.897167
6740 10636 0.0466311
19243 3816 0.0559266
14907 3552 0.92119
8697 9277 0.366174
8538 9450 0.614471
683 17598 0.698586
11512 14283 0.618018
10768 2805 0.27537
15952 10568 0.933463
2650 6355 0.475006
18967 16978 0.246167
3408 10424 0.325938
8012 19057 0.552489
16699 9348 0.564943
16130 5967 0.325928
19559 5851 0.21963
1034 13882 0.997265
10313 3135 0.493634
2531 11251 0.462022
1652 7902 0.118199
10642 1934 0.432022
9040 9428 0.00141272
1119 231 0.275601
1251 12603 0.634687
11805 3180 0.232898
6732 2341 0.0287734
7401 2092 0.110769
12689 10494 0.715063
7386 12205 0.0168715
7265 8621 0.166279
5997 2968 0.569266
8647 10295 0.985513
920 6066 0.938336
5277 12118 0.649077
10371 4443 0.991978
1943 9780 0.595292
5178 2078 0.218639
6250 11338 0.921913
17392 10500 0.444724
5148 11469 0.683037
13827 5030 0.0230645
12485 12186 0.550964
18846 15778 0.649869
18609 2671 0.873357
12477 8953 0.768896
3930 2206 0.647497
18536 13856 0.597448
10567 2800 0.658236
9690 7068 0.580279
2642 7993 0.16681
1623 16629 0.467309
3105 19963 0.201092
6086 1773 0.407829
10357 7116 0.568462
7473 12574 0.161825
18654 331 0.437946
7886 10770 0.29043
7564 13479 0.635765
1616 11622 0.260139
780 8724 0.150423
18246 12387 0.129345
12175 15280 0.545111
14437 3179 0.609035
14561 14063 0.176795
7313 518 0.0471724
2565 16618 0.384111
834 11119 0.0883367
14046 17309 0.591622
9683 14189 0.227593
7598 13866 0.950689
9223 7787 0.607978
2751 8317 0.0520801
8329 2873 0.910786
4298 7609 0.502744
11431 10817 0.837738
2395 12537 0.818326
18497 173 0.796901
17051 6502 0.744105
8811 12825 0.935338
11986 10101 0.165258
6517 15008 0.0971452
18808 3574 0.094333
11992 1306 0.239968
9579 14235 0.953085
12453 1898 0.53753
12685 6634 0.490118
15890 5870 0.805442
7635 11991 0.828274
10600 8106 0.4413
2618 992 0.786455
2597 10667 0.613601
10648 9087 0.976447
11152 2897 0.0938974
2350 9406 0.0988159
6860 15647 0.0106494
8989 11633 0.831387
6373 11594 0.675651
19365 365 0.789483
4470 4407 0.313383
14978 4518 0.17943
7886 726 0.834573
9197 11384 0.141741
2327 12767 0.295856
9123 5874 0.0848674
1123 1670 0.713333
13094 3371 0.401346
4439 10308 0.779644
3346 269 0.949439
4620 3485 0.0165739
3620 6388 0.266341
13371 4175 0.676987
16763 1193 0.492184
1213 3538 0.401366
2403 7486 0.672661
6967 4077 0.780643
9461 18513 0.603555
15049 7849 0.55616
4725 12763 0.498457
11948 12303 0.924019
7562 5980 0.259313
11790 7603 0.631089
11879 6692 0.218486
14132 16025 0.95137
12184 11491 0.027281
19520 10201 0.849339
15987 2256 0.821098
781 19878 0.438351
13163 7945 0.927173
8384 12579 0.580279
11243 955 0.0678393
10971 6485 0.913811
12337 2936 0.933802
7781 11281 0.390111
17114 7886 0.779719
8269 11232 0.944164
12527 14579 0.189683
9037 16871 0.186012
1653 19308 0.518203
6559 10215 0.530697
5589 18766 0.629534
9907 8604 0.0309065
585 1874 0.978532
9695 12698 0.278988
1780 3706 0.0443834
6848 10958 0.0945561
7833 11754 0.874687
5144 3130 0.160485
16042 7215 0.471625
19866 12192 0.614449
16552 17587 0.39272
12571 6874 0.149418
7392 2636 0.0189257
6755 6267 0.387974
6050 13645 0.486052
808 3181 0.18014
3000 5868 0.637451
4284 2317 0.097046
19176 1307 0.979812
3517 8308 0.339764
3141 1575 0.484957
845 4126 0.812222
17140 14264 0.522774
1766 17870 0.351016
2801 6249 0.798698
3196 7588 0.630019
11799 6058 0.0934717
4496 10659 0.0430594
10580 5286 0.916999
12817 1645 0.398947
8870 13511 0.146
3253 19995 0.846196
1650 15375 0.00573885
3277 6385 0.951711
10041 12765 0.157422
8586 9572 0.357708
8305 705 0.243228
3939 17044 0.559274
4254 9746 0.820397
10140 1175 0.460498
19927 16849 0.567159
10733 10485 0.625314
1589 5771 0.814653
891 4795 0.247476
14796 5945 0.184818
19636 16515 0.871418
7064 17080 0.54478
15918 12172 0.0318085
10875 1140 0.102047
910 7360 0.780637
13202 17994 0.913387
8248 10520 0.824538
2402 13456 0.953222
17109 10591 0.193078
12724 13179 0.933645
13800 2818 0.244286
4404 4984 0.916502
8224 11806 0.132942
15745 16703 0.533416
11268 13088 0.253567
12592 9587 0.455866
8887 6626 0.728967
16379 3620 0.761269
11044 19612 0.114416
7789 4077 0.882429
9088 9811 0.830679
4889 10933 0.804584
6857 8255 0.265146
8211 16001 0.305179
6851 9298 0.715114
335 2169 0.429467
5434 9513 0.647004
6846 19681 0.129564
17010 10319 0.038623
1243 16883 0.931366
10295 13470 0.173896
19927 9480 0.238614
18631 4880 0.608633
10914 5610 0.579522
13894 7695 0.511031
18856 5822 0.440378
932 4320 0.686362
988 1882 0.42998
8714 16953 0.709878
8711 5092 0.424612
6112 6751 0.284196
19124 12304 0.0261003
8446 6148 0.304623
15478 1905 0.634028
11312 8507 0.0339703
15378 267 0.019471
5292 3862 0.0548311
2100 11788 0.382764
678 19705 0.316509
27 8086 0.4977
14414 11581 0.658931
662 10130 0.12427
6885 12941 0.318669
17524 11628 0.437326
10971 16492 0.750798
3525 9767 0.865041
7797 15293 0.414419
8567 14347 0.0989261
6418 4258 0.21864
7527 10441 0.0286926
15537 3956 0.598567
12278 18196 0.37907
1387 7156 0.560751
17642 2432 0.430516
11559 3931 0.988673
16893 4505 0.369454
2196 4170 0.122805
4948 314 0.628592
6839 6126 0.23318
9622 8417 0.873767
6896 3171 0.495053
15072 1730 0.623599
1276 1749 0.602116
4242 7309 0.716086
5502 5669 0.541335
12211 14887 0.576745
1107 4686 0.732345
7944 17690 0.28088
4514 9991 0.285978
19730 8924 0.141749
8806 18140 0.981902
9501 14785 0.875899
16241 6186 0.737904
7815 17359 0.456958
4087 16077 0.24915
12682 3773 0.222738
2660 11380 0.397479
2221 7452 0.944265
10277 3181 0.312089
16772 12604 0.352307
19514 3714 0.843512
1360 14925 0.553049
4533 6752 0.672629
1897 5760 0.53909
18043 12636 0.527433
5470 19503 0.38665
8158 2353 0.213599
7247 262 0.576138
12694 4576 0.0798323
5715 14078 0.479345
6076 14191 0.668035
1414 12032 0.0498921
14035 19771 0.570743
1963 4101 0.0447404
6379 7738 0.33884
8138 7824 0.762368
575 12519 0.536047
9140 1915 0.222944
9524 1886 0.342944
17145 5801 0.803008
12073 4065 0.339604
4159 13253 0.326748
11132 1108 0.636804
17744 3364 0.414379
8605 19071 0.998408
18482 14715 0.490214
13654 12188 0.458145
4233 9143 0.714486
8550 9259 0.781036
9230 11931 0.354146
9070 4379 0.40444
8096 7466 0.596501
7255 9667 0.912254
14332 4595 0.172376
10877 1965 0.722355
1019 6887 0.127275
17204 6449 0.62506
16271 1243 0.768438
16190 5151 0.691207
323 8732 0.532865
7191 3655 0.340812
12353 11854 0.394678
1082 11100 0.133545
601 19431 0.790776
2567 19007 0.391389
481 8210 0.280274
10823 14999 0.753895
4747 19375 0.792402
2637 14754 0.56692
6624 112 0.0974358
6107 18993 0.912625
19875 10454 0.437417
7282 886 0.299193
8938 8127 0.725843
6818 8341 0.060118
16008 14986 0.576058
11065 14521 0.0159451
7109 16069 0.397615
3637 19872 0.0023097
77 2917 0.668877
8338 11486 0.2046
2827 5617 0.277141
7203 10654 0.931686
1886 13400 0.280647
6689 5399 0.708137
12238 6308 0.585612
12496 14460 0.00796489
17709 4413 0.870242
1354 4536 0.0308039
19122 939 0.243728
1682 6979 0.595292
7191 9417 0.362278
8763 295 0.800988
10455 5876 0.631556
6074 606 0.0681066
7210 11937 0.453986
17719 14485 0.82285
13902 14115 0.203852
1847 11398 0.521947
6763 18523 0.0482868
5925 12553 0.635057
1262 11168 0.907811
9790 11705 0.436596
14995 12608 0.425995
1630 8694 0.103033
11895 5394 0.0257024
2463 17515 0.252246
11152 5902 0.528865
18024 15994 0.163233
7161 8853 0.541264
11002 10246 0.411432
9375 16533 0.185235
9879 11250 0.231066
4931 11874 0.737941
2457 13689 0.634437
12440 1137 0.349918
12315 8070 0.201709
7734 11685 0.411712
14344 12575 0.802095
177 6776 0.0311819
6505 16253 0.0684779
2282 18973 0.886542
7017 7906 0.515645
7848 1375 0.378003
7849 18682 0.0832414
7034 6539 0.570658
6815 19847 0.260549
19155 19117 0.558583
11995 10673 0.249436
5573 6548 0.732206
16172 17431 0.563337
8668 4547 0.456881
7794 11475 0.141085
18743 13376 0.337612
18924 2420 0.565094
1984 11941 0.942936
18202 11188 0.19424
12817 6769 0.314826
8544 18785 0.898397
6471 11522 0.472683
3145 3809 0.583939
6924 1583 0.0988175
1504 6110 0.378023
12093 1511 0.161825
9953 12571 0.623553
9409 7476 0.283081
8682 1976 0.635807
13748 6437 0.19632
19672 3247 0.265534
18233 10512 0.924521
7150 13272 0.883989
11693 366 0.301983
1663 1250 0.238614
7795 1400 0.354256
11334 1507 0.267977
4972 1585 0.710967
3344 6598 0.95293
8444 7946 0.811224
18397 5076 0.0946085
15323 6680 0.993557
12446 371 0.958337
9415 3664 0.420485
363 11436 0.0986989
3428 8778 0.0583641
14300 14178 0.241048
7455 5023 0.923851
8003 10324 0.505438
19404 19510 0.230855
2009 4765 0.0187107
7152 12697 0.328541
17985 19952 0.316646
9520 2741 0.981293
7903 17912 0.614997
12585 5167 0.162809
5409 3067 0.0324248
5047 19021 0.85414
9735 16701 0.540628
5955 15997 0.65245
12563 2159 0.290605
58 3316 0.312005
4889 15862 0.564785
3358 15565 0.525469
6526 6852 0.752281
5463 12687 0.455248
14167 12939 0.0183786
3077 14196 0.152214
11560 3036 0.180711
10340 4268 0.207388
13979 1761 0.820977
8452 9263 0.285562
5972 4755 0.214667
11673 3344 0.0783785
2359 6428 0.603157
10843 188 0.577895
19335 7961 0.873224
16689 2202 0.489609
18430 8805 0.976127
14384 17663 0.969264
8887 6665 0.596474
16174 11539 0.9257
1699 18977 0.075576
17023 9018 0.662736
15230 18103 0.978348
7291 512 0.762711
5261 18306 0.981222
3797 136 0.733196
3708 9780 0.851508
5909 11317 0.227552
10678 4516 0.369452
19608 4098 0.0776839
10980 10549 0.474518
4296 16184 0.972662
3261 1068 0.079422
6197 8796 0.044403
13851 1369 0.155411
5178 1824 0.845184
10342 12972 0.753062
18017 6717 0.438146
18348 2339 0.238891
12380 9551 0.840635
5429 17963 0.539481
10293 5370 0.152507
8925 1559 0.156773
10086 16156 0.376795
15838 10792 0.0222906
8460 9069 0.192771
1440 6890 0.703446
9919 6809 0.287015
12035 484 0.595775
11860 7398 0.55025
16833 18709 0.378156
2795 10193 0.735175
7578 784 0.434295
7538 13652 0.445803
6883 16756 0.216674
14256 8720 0.709596
17725 17440 0.775054
10836 1581 0.0822726
10127 9664 0.546824
10387 7844 0.829099
14792 3392 0.0959034
17389 7365 0.51282
4143 1256 0.75823
1573 30 0.346172
19767 18767 0.391926
18219 17492 0.605078
10866 12013 0.66368
13932 2415 0.91656
6783 13363 0.898622
8993 1819 0.447364
10306 5333 0.151312
6068 7292 0.475054
7688 10917 0.766932
7502 8770 0.0538642
12772 11473 0.619549
17090 6559 0.517103
5175 2229 0.335743
10526 2957 0.00810129
15370 19133 0.302055
19339 12630 0.437326
3615 12783 0.845234
16210 14519 0.265802
4090 1630 0.153967
5450 8972 0.229266
19941 1301 0.807375
13549 5689 0.206177
1933 14787 0.442619
13841 12042 0.461401
19945 1435 0.307192
9500 4957 0.780481
7285 18332 0.439846
1115 10843 0.872089
15078 14305 0.38127
9690 12379 0.405242
7367 11886 0.164765
13795 2995 0.598938
6539 1164 0.336826
5161 2738 0.521027
10356 4371 0.962434
8164 6021 0.613717
9222 2065 0.00665496
7497 8429 0.478197
12549 14781 0.268646
691 10088 0.923939
1536 111 0.951608
10631 17602 0.629741
11028 10198 0.428221
5723 9111 0.385754
7349 3935 0.845627
936 591 0.269481
9660 3531 0.968713
7896 2799 0.10239
17189 4690 0.281495
19267 1190 0.303721
8029 9623 0.0917121
6570 12469 0.709662
17165 6221 0.638282
4258 7447 0.0291644
5253 3181 0.528267
15563 10654 0.807705
10879 2136 0.129682
8446 1730 0.807087
15429 8037 0.875283
5878 9123 0.405912
15054 5928 0.229475
11764 8792 0.0620791
3591 5213 0.697821
1142 18394 0.566231
13995 8624 0.171026
9655 2403 0.735959
13223 6807 0.540909
10788 11929 0.410375
16426 1777 0.243332
10344 19211 0.501153
10350 619 0.7031
5767 1500 0.167005
15120 11171 0.532935
13782 7925 0.94846
5534 14626 0.245568
12216 1500 0.520487
9883 11269 0.0261003
11568 15713 0.115917
4739 13561 0.268481
9561 650 0.801525
11660 18892 0.815017
7121 5002 0.0327744
3005 19793 0.755686
10603 1533 0.796349
15516 6523 0.352712
5917 8240 0.463013
17535 4091 0.454144
10080 6714 0.0844744
3382 2012 0.21981
6141 9481 0.630159
8083 19100 0.866096
19285 271 0.0116336
12368 8139 0.334426
17071 548 0.153597
8816 10289 0.380059
8536 9565 0.244897
3392 7690 0.742152
5961 12457 0.0496176
5883 5796 0.773248
3449 6465 0.785593
7949 5748 0.603157
13392 2492 0.215969
8015 12088 0.0962535
10074 5158 0.32478
11330 8879 0.723656
8547 6485 0.769812
11066 10370 0.51282
4434 2309 0.868417
8041 12068 0.162299
16360 8244 0.666312
8831 18079 0.232731
7260 3421 0.294035
16859 268 0.207234
18019 10607 0.742318
14412 4944 0.966344
12092 3865 0.477386
19109 1920 0.726618
18280 3697 0.66864
11148 2012 0.575412
5394 7808 0.531002
6103 2687 0.00861752
2429 2891 0.890341
830 8518 0.322357
9033 7716 0.354369
11850 11714 0.998798
788 2794 0.705457
6102 10818 0.788695
19918 7628 0.00772389
3385 12227 0.100114
1823 6065 0.299523
4255 10481 0.28516
9724 19684 0.195149
3257 13929 0.612904
15563 4911 0.753539
2111 1298 0.50329
8084 8628 0.666312
3239 11091 0.60779
2378 3759 0.873914
11021 1159 0.0918162
17982 7887 0.12837
16780 18009 0.356121
10432 7592 0.678732
1111 1740 0.548178
14076 9243 0.587542
6720 1784 0.523975
4403 9919 0.486686
15016 19414 0.298287
14891 2828 0.5844
7974 9641 0.445766
4045 2067 0.205401
17731 17143 0.254893
10911 17830 0.161733
3685 5084 0.321168
19299 15313 0.0652411
2310 2848 0.506647
3019 12208 0.530773
13662 19201 0.177588
5254 11223 0.170999
11758 2691 0.132564
16467 1387 0.851424
14362 7343 0.296561
5626 19230 0.153616
11751 12873 0.806591
16822 1981 0.991544
8173 9260 0.0591761
8965 11188 0.94846
19650 698 0.299888
10321 1859 0.413298
3261 4517 0.0223998
3581 1260 0.584242
11458 2793 0.788145
3631 3319 0.355877
2555 18807 0.300153
9827 4957 0.157649
1997 16506 0.516806
9947 7980 0.0995432
6037 5410 0.35079
7503 11061 0.541419
5465 305 0.35791
893 1669 0.445918
12549 19061 0.540536
12989 676 0.0348129
18236 5897 0.887941
17176 6629 0.814252
13320 3047 0.575412
1781 1800 0.738214
19909 9648 0.675839
9617 5619 0.116422
10018 6648 0.840171
18556 4697 0.374097
11119 4363 0.342033
9976 3282 0.808374
2700 10667 0.98038
6267 15741 0.00987483
14948 9017 0.17503
8657 8034 0.459085
980 5863 0.775951
6960 8366 0.976516
6746 6644 0.8486
8571 3121 0.517506
11399 10665 0.577587
18168 1141 0.96919
3864 9499 0.898829
6643 6326 0.35688
4935 19787 0.777015
9549 3226 0.220366
5963 15111 0.131453
3416 2174 0.587857
10978 6876 0.457217
4670 8744 0.0900685
4139 4846 0.42977
363 18277 0.743548
16334 5480 0.720588
7537 3112 0.0510803
9001 1211 0.0117922
3110 9543 0.0129169
8520 1714 0.891671
4253 7266 0.786135
11522 3384 0.364087
3563 3127 0.228297
4888 8715 0.440566
897 10337 0.763337
5774 4010 0.961602
12213 1933 0.330405
1242 2863 0.314944
17626 4082 0.463127
19050 3706 0.755619
3814 11826 0.550054
14613 2444 0.630509
18595 10707 0.250032
992 6054 0.604808
2454 17846 0.679893
17041 10946 0.512188
14064 10944 0.444234
6595 14734 0.0651292
12539 312 0.363379
13493 19020 0.71496
8278 4345 0.846367
2427 7591 0.114512
11763 11833 0.414654
12749 3300 0.358559
13727 3903 0.551754
3080 9725 0.0999567
10769 18370 0.114335
1039 12190 0.729188
11907 9425 0.536579
10380 4354 0.0948885
9873 6863 0.418955
8199 3903 0.80779
1065 17474 0.644101
18203 16170 0.350298
16911 17304 0.611326
13850 12508 0.522514
644 14767 0.587908
11784 8467 0.829252
3628 12373 0.602116
13476 5919 0.410282
6833 9380 0.765855
14524 8399 0.803281
3333 18860 0.690303
209 16943 0.20776
632 1207 0.758825
9538 15022 0.661038
8768 3183 0.800988
17095 11736 0.0449221
8229 1533 0.279377
2086 6462 0.00277497
13083 15670 0.158951
1040 15386 0.246412
19356 3558 0.857532
9420 16507 0.201025
16733 11376 0.675509
18967 10498 0.971484
9032 17616 0.502596
7362 2826 0.526105
642 16871 0.459946
8510 1351 0.641496
7594 2454 0.62648
9467 4913 0.985533
10565 5689 0.856952
2721 2279 0.81631
4433 3300 0.551754
9446 7087 0.327328
7085 1549 0.495087
14572 7075 0.312465
2455 4396 0.263308
15795 6858 0.00488792
14112 5714 0.641949
7982 4560 0.489248
211 8752 0.947126
2449 7487 0.0442916
3129 4229 0.0856865
1655 1790 0.0370269
6576 618 0.762007
2944 11531 0.684064
15121 19402 0.133365
1366 900 0.244897
12435 4311 0.536366
11602 4289 0.535454
5903 2597 0.808729
1976 16800 0.538217
9188 18693 0.151616
720 2781 0.142274
6630 6235 0.110376
10532 720 0.956844
8882 15936 0.679237
1340 7156 0.644726
18172 10161 0.204161
2208 7618 0.432655
2279 9444 0.18107
7018 19439 0.84669
16660 4928 0.532865
4604 12849 0.546473
7769 1243 0.78433
19947 10398 0.164433
12565 18347 0.457795
13193 2706 0.841379
7799 625 0.244541
13260 4415 0.955924
10408 18424 0.648641
18076 3147 0.642015
9211 16332 0.070167
11139 7991 0.164235
18598 9390 0.102858
9104 11706 0.295333
9796 14381 0.338919
12370 91 0.125661
12248 16256 0.935051
944 5585 0.80712
12558 6930 0.637797
13332 8765 0.40002
7008 13664 0.7727
4107 92 0.895863
16910 2204 0.328274
15654 11152 0.687536
10166 3791 0.212035
1400 8893 0.0521188
5457 510 0.567506
2726 6182 0.170859
19100 1530 0.23366
7439 14262 0.0311439
11611 9825 0.393616
11388 116 0.8883
11414 15160 0.175413
3728 16833 0.9994
5464 5907 0.229679
11302 2482 0.652547
3702 153 0.290702
18737 16604 0.26173
5855 8059 0.0620791
10524 11725 0.563644
5225 11460 0.524262
7461 7291 0.398329
12115 2858 0.513359
589 2489 0.396128
2416 4060 0.505768
15725 14223 0.070586
2432 11535 0.0238795
11670 7155 0.559545
12629 10024 0.0548311
12599 7809 0.658031
12401 986 0.354151
2651 16609 0.38902
3528 4150 0.178638
19352 10981 0.25207
5472 18341 0.859902
3195 556 0.330146
10892 5399 0.207345
4472 18859 0.99259
4620 19595 0.388719
9272 74 0.00387069
1527 12039 0.768438
4253 8806 0.368883
14804 8074 0.585447
17602 12279 0.163552
11213 570 0.645041
18789 2059 0.796191
6651 16784 0.515155
17043 16810 0.367591
4917 11592 0.0989229
6164 11900 0.516944
5752 12250 0.650071
9945 3660 0.364379
14935 3683 0.35438
1550 669 0.709878
8754 5178 0.299455
9376 12215 0.467813
2162 2611 0.53755
4647 18902 0.552813
2728 13537 0.262755
1797 3481 0.539588
12698 5782 0.30602
502 15412 0.673778
11171 951 0.098658
23 5415 0.431736
1291 5645 0.820587
14126 17521 0.414051
14263 13396 0.637344
2109 2372 0.121658
740 9528 0.350926
4235 11959 0.768904
1632 6550 0.0518696
6489 17946 0.60421
12996 9605 0.268921
15682 11771 0.327283
13224 9255 0.573065
3110 298 0.866707
2118 7735 0.388546
8231 16240 0.598015
3012 6288 0.862466
10647 4564 0.500291
502 13093 0.799617
19221 14944 0.723123
9039 16196 0.459233
6895 6046 0.823844
4467 11029 0.268249
10871 5658 0.192661
3666 3083 0.838913
13813 9185 0.673353
6241 7271 0.326701
14509 11652 0.983415
13791 954 0.900833
19587 12342 0.407296
15460 10427 0.398558
9936 11346 0.0246633
11785 17791 0.856008
9467 3772 0.744303
14959 12964 0.858
17306 4910 0.245948
14124 14146 0.197775
18078 14403 0.721575
6367 3935 0.566324
1841 6518 0.330135
12025 5032 0.779788
9838 3128 0.0207097
13770 10785 0.528157
2619 14690 0.69546
5262 10613 0.572155
15820 11741 0.937801
8989 8697 0.186541
6632 18999 0.716437
11952 16495 0.980871
18867 205 0.397656
7134 4203 0.75282
6950 2107 0.0969166
16136 14115 0.70028
230 69 0.0693824
3762 5435 0.25117
2732 14935 0.440032
1067 3237 0.249516
10975 3883 0.766458
15631 2454 0.72194
13880 9442 0.699921
9417 13268 0.947927
2905 12684 0.677963
9643 11474 0.793183
9862 12653 0.794877
3619 15677 0.0960875
8307 876 0.476555
14663 17875 0.573029
1176 11030 0.537239
18929 3059 0.91707
10121 5047 0.116818
12562 4203 0.886481
19321 2561 0.527887
4423 16601 0.197478
8101 13245 0.513116
696 9773 0.0974918
12252 6930 0.658578
79 16402 0.757831
5487 1868 0.996638
3286 18138 0.834191
2350 9257 0.691979
1605 12179 0.303946
3458 8927 0.841763
900 3767 0.440875
17312 10121 0.27334
11104 2844 0.719623
3429 293 0.304751
7320 2223 0.231066
19145 11871 0.331298
112 12844 0.087573
18899 14905 0.439381
105 1097 0.0566112
2180 5644 0.435152
1432 2192 0.704492
15828 4737 0.545745
4969 1003 0.453769
13374 7689 0.27334
10346 10671 0.418205
15203 4205 0.564127
2469 9743 0.672231
5001 6322 0.512375
10355 10302 0.133831
3136 11001 0.678708
12260 4371 0.889311
9451 16071 0.83658
2362 18841 0.567263
450 3980 0.195792
6185 7130 0.727904
11288 3965 0.552187
2554 1886 0.635042
9997 18236 0.563612
15629 12395 0.367963
5160 6315 0.662725
371 16677 0.393768
8421 15957 0.853464
18191 2779 0.778075
17537 19621 0.640347
7684 15538 0.424612
15151 8592 0.946557
7826 1241 0.892443
18804 17852 0.101508
9049 5091 0.647497
12355 3915 0.260471
12469 7892 0.0828744
1209 9593 0.327939
3490 9565 0.424612
6549 10973 0.649974
3829 256 0.125423
6374 15152 0.730525
2006 2070 0.255588
17722 462 0.524937
9333 1260 0.0417407
12352 11627 0.399411
5533 3701 0.676638
11516 5353 0.842987
12318 7150 0.181823
7985 14177 0.0506846
1189 1061 0.0858737
9667 6075 0.0174884
755 12262 0.330512
9097 4019 0.645376
1249 11807 0.213822
7070 7473 0.722207
4757 924 0.365717
2179 9869 0.898325
8256 2477 0.240293
18149 133 0.981105
4479 11454 0.237182
987 2793 0.641803
718 18491 0.967261
3523 4199 0.0878386
10010 7306 0.743996
6248 15124 0.181105
15115 6935 0.718791
8079 5902 0.820322
17735 12338 0.735997
13335 14434 0.632753
1645 5056 0.374295
10285 3371 0.337147
789 8807 0.176503
10720 16368 0.436596
13370 16042 0.0671847
5959 6640 0.913855
1679 18944 0.0322936
16712 3022 0.949245
11421 2546 0.990956
6795 4773 0.964346
817 5708 0.807318
16947 8724 0.539066
6178 2959 0.686932
7152 13674 0.0684384
3509 4099 0.877215
12664 7149 0.491033
8081 9081 0.0837386
2166 6949 0.797905
6563 11919 0.487745
14891 10185 0.481515
8954 2532 0.331107
1436 18641 0.922357
5453 11161 0.0939279
16347 15802 0.426367
7640 17326 0.901692
17307 8747 0.587114
4147 6252 0.91273
408 365 0.226596
7593 15744 0.209217
15175 3950 0.523699
4488 9442 0.9028
4684 16168 0.278312
8290 4752 0.756116
6003 3684 0.138475
10146 1165 0.788501
13171 8590 0.720284
3643 1815 0.552823
11276 11003 0.211978
15665 17958 0.34958
2590 3936 0.813029
5973 17667 0.793179
12060 6463 0.232604
8897 16575 0.286448
1642 4074 0.589664
3366 3270 0.246436
18279 15504 0.753352
3248 1639 0.00968841
211 3883 0.998991
18256 9173 0.454618
2179 13332 0.54375
9540 10748 0.355339
5509 9271 0.986027
7227 1979 0.864174
12071 2622 0.622085
11948 15148 0.151557
8439 546 0.885591
11338 12033 0.41536
7156 4061 0.78558
7096 18662 0.197465
7549 9271 0.227656
9377 11535 0.355212
7149 18167 0.132564
5332 12674 0.0895895
728 18021 0.103853
9091 9418 0.614312
3811 57 0.878396
6522 12698 0.551185
315 12124 0.876397
17414 9029 0.1553
12831 9259 0.859955
11053 6972 0.602172
779 13077 0.284092
9988 4644 0.159563
1900 6359 0.207234
17094 15344 0.0398431
7508 8710 0.912834
2115 5589 0.784086
11654 15742 0.590557
11691 6615 0.71263
9169 1086 0.643239
7596 8205 0.767446
3936 6107 0.613611
6615 6019 0.965237
7306 12322 0.70372
6298 7135 0.729114
16113 10021 0.116841
311 4442 0.941878
19939 8279 0.331792
3168 9931 0.498806
382 9397 0.878404
9778 6863 0.757986
9781 7170 0.745283
6980 7349 0.0748171
19042 10135 0.785865
3841 12257 0.953849
1182 4150 0.941948
15852 14583 0.651045
16200 11353 0.368033
4709 2080 0.0895895
2378 14873 0.0628725
13625 5316 0.0713878
19663 7879 0.533703
7971 14644 0.906918
6417 8370 0.986196
10774 11334 0.139214
12028 7942 0.601758
3086 7425 0.584906
12377 10397 0.642013
9127 17889 0.377779
9396 16171 0.0409465
15155 12709 0.376897
16629 5786 0.832187
18800 17307 0.0831626
10614 10879 0.680802
12687 19522 0.837919
5471 8343 0.735881
11631 19603 0.233807
13054 10210 0.424555
6006 16192 0.26484
10184 17967 0.298377
11328 13127 0.933287
2619 11549 0.842265
9879 440 0.418815
18351 13988 0.275218
13621 17438 0.371424
1346 17025 0.176269
1718 7191 0.00438774
6744 7846 0.490346
2112 5563 0.0653231
15250 6646 0.874222
5963 6738 0.075354
4023 12498 0.573537
15149 7319 0.853471
10023 2136 0.676757
582 14317 0.270263
5693 3277 0.0309811
6260 4064 0.131021
4098 11999 0.00779343
13435 1815 0.608109
9201 17771 0.56315
3925 4953 0.590323
17594 9909 0.0277323
16294 5435 0.972622
16434 8935 0.393428
11874 12732 0.334493
16019 12020 0.583127
3327 12327 0.90864
218 5879 0.388999
16373 5330 0.917
3263 4698 0.908342
18289 6155 0.737618
8967 16357 0.836394
3645 6731 0.407788
16767 8147 0.132418
9635 11595 0.992453
6852 19907 0.627473
19673 12809 0.247245
11007 4686 0.467549
8557 1530 0.621087
5890 10716 0.7669
14699 13569 0.427402
4655 3564 0.0158393
3212 9894 0.111739
14716 3714 0.800942
2511 6281 0.915741
18411 124 0.531432
3448 17089 0.398529
7132 5474 0.0285438
9068 9863 0.196759
18245 5255 0.464283
2835 8891 0.188539
15846 761 0.462275
10037 72 0.544705
3444 367 0.203853
19104 1740 0.255179
17118 6346 0.553436
6403 5658 0.232286
6848 19548 0.754392
16432 9363 0.6975
8795 780 0.146227
11304 7261 0.35702
1127 5160 0.410123
3037 7095 0.0121724
3845 8181 0.4977
6190 1238 0.273456
6463 11628 0.700598
16758 17529 0.813442
10609 6270 0.643526
9977 12212 0.585712
4403 15587 0.283685
19153 9020 0.751102
3591 2176 0.400263
7578 4198 0.0406727
17380 4196 0.369518
1445 1316 0.427726
9118 2358 0.41456
14650 6549 0.313514
6464 17740 0.987007
1661 905 0.67726
6573 12425 0.226137
8538 19740 0.697314
19320 19456 0.717219
11157 6345 0.736557
5899 3282 0.113098
3423 12375 0.696322
9662 6276 0.815713
10362 8589 0.505927
15159 13282 0.416816
6238 14375 0.837481
7171 4885 0.141234
18165 3052 0.120163
12514 4688 0.369147
8079 7462 0.764911
9850 3828 0.803625
928 11347 0.698597
3047 9385 0.314845
617 18015 0.95928
6614 10136 0.965566
3028 4310 0.250835
8274 833 0.0102525
15184 5966 0.0290838
10131 6762 0.0849029
4216 5453 0.133595
554 3255 0.776898
3720 11364 0.863975
2643 10022 0.0807069
12102 6840 0.744188
9860 7030 0.330227
5460 8603 0.276188
8063 7421 0.990065
2780 1984 0.249179
11322 762 0.94381
10164 6872 0.849306
3488 9949 0.746074
248 931 0.327325
17370 11720 0.217742
11214 11147 0.405549
3210 19294 0.744303
4263 9278 0.752086
16445 3604 0.514194
14045 17706 0.974833
13664 12964 0.0398851
8870 11333 0.0757698
18008 19473 0.413609
3141 12639 0.180275
3223 5061 0.928434
9181 13461 0.412997
1965 2679 0.395269
4472 8851 0.557659
7958 12156 0.493896
9571 7346 0.753483
2823 7395 0.222785
2910 1519 0.0571396
2851 3201 0.111117
12736 5710 0.865682
8901 16156 0.739144
2706 1404 0.945354
4074 12647 0.319928
2731 5119 0.97828
6704 16191 0.809146
19802 826 0.352846
10509 10681 0.50173
19550 14636 0.220719
7569 6945 0.894929
9271 6195 0.172882
15879 16993 0.826919
9555 11830 0.446181
6821 9367 0.25759
4131 6941 0.146718
7944 8596 0.662657
6155 8844 0.507539
7520 9025 0.343086
6719 8213 0.93819
17682 9041 0.790967
14099 15321 0.152554
663 4452 0.0872899
18076 8255 0.969456
4069 5126 0.227213
8549 11694 0.577272
7686 841 0.72415
8617 10856 0.815895
12499 6223 0.346091
4968 14511 0.228525
1646 14807 0.825598
1517 15275 0.361714
3957 7894 0.499887
9630 19271 0.824238
11031 7253 0.969346
13773 8442 0.0584154
10713 258 0.965452
17808 1558 0.615005
881 3156 0.993346
907 10978 0.996013
1616 5124 0.733207
3910 11433 0.0760744
9168 3990 0.480292
12572 14740 0.063327
12006 2774 0.272663
6415 8308 0.787913
8229 520 0.941045
2954 9368 0.40741
3025 12013 0.471198
12190 17776 0.777618
8429 5682 0.804379
12952 10572 0.196026
16119 1998 0.0723803
4988 1554 0.989546
8373 16252 0.983837
11924 4370 0.807503
12625 9704 0.313383
13672 17689 0.195149
5089 6856 0.777727
19381 9606 0.436565
10409 10150 0.344967
3833 4895 0.225773
1913 9187 0.0665559
8150 11762 0.886497
1520 3759 0.613374
3621 12432 0.677332
72 10791 0.695134
6136 4797 0.43451
17219 6270 0.869337
930 7888 0.812805
4398 4827 0.904509
2921 7356 0.889311
1079 13043 0.577159
10923 3193 0.607188
11477 901 0.940853
13685 12146 0.481271
6726 5521 0.0706828
11718 171 0.037022
2169 13569 0.628068
18449 12226 0.496212
2728 16714 0.00386979
11103 2689 0.849093
5250 12331 0.427859
9804 16417 0.29764
19064 4125 0.396935
829 15972 0.0362755
2034 872 0.798698
2311 15300 0.0924727
1453 393 0.506918
9672 1545 0.902042
15813 16665 0.0937114
661 13704 0.0183786
10825 5592 0.431645
10211 2285 0.180275
4303 7140 0.339883
6371 9749 0.146436
19130 2585 0.015544
5638 4379 0.841724
8166 1640 0.889225
14625 2239 0.0677665
19617 8256 0.517731
3472 5853 0.967684
12673 7882 0.0471391
11250 12216 0.341165
18721 11081 0.656099
18188 5601 0.302844
4010 3984 0.307713
17614 9695 0.092301
7500 5516 0.304615
6896 3533 0.873163
1959 6944 0.231122
6366 13051 0.339788
2650 6992 0.39272
1508 8867 0.976006
7351 18866 0.498457
17715 8044 0.616954
776 11923 0.895307
17850 9722 0.735868
15213 8907 0.800783
19108 522 0.578206
10691 16294 0.355877
11191 4269 0.231458
11316 9576 0.207969
13590 15261 0.812518
12364 18934 0.428366
17780 1904 0.144034
1317 7491 0.499857
14815 4579 0.359983
6445 4196 0.00532544
2897 2452 0.913096
993 4237 0.710071
4045 16343 0.390816
240 13513 0.0198968
8586 5878 0.0596254
10914 3910 0.493634
10763 18728 0.671894
3759 10503 0.743443
10782 7406 0.676967
5147 10560 0.18627
8259 9445 0.966344
17541 8022 0.685825
19130 4752 0.380304
1999 8697 0.833973
7169 4649 0.894282
10103 4133 0.254102
1380 11288 0.785119
2130 17433 0.860191
437 12800 0.391716
6282 9306 0.960495
4163 5710 0.729296
573 6010 0.19985
4581 4277 0.62648
7108 9997 0.939533
6835 6774 0.0541549
11122 15959 0.194636
866 8678 0.319493
11743 11150 0.643025
10832 3872 0.0105331
8636 12149 0.313531
13061 8833 0.705721
15678 15876 0.237182
7584 6354 0.548589
1386 10968 0.931456
19043 5527 0.883316
12666 7347 0.448286
11992 3416 0.516453
10720 10178 0.374193
53 6538 0.52046
6628 10898 0.167528
8268 3580 0.968061
14130 6702 0.0792426
19688 8559 0.0123511
6034 11656 0.568208
19414 7006 0.824073
2063 13262 0.335643
12619 19022 0.326418
17182 11976 0.777083
5273 19164 0.468932
12164 4394 0.683029
9622 7303 0.246054
2557 1351 0.927285
8654 15418 0.670668
1395 11656 0.187476
9178 161 0.677854
5642 6698 0.0192157
14514 8933 0.322491
2437 11185 0.0544734
321 13019 0.412275
17424 7033 0.19046
12794 1810 0.582942
10865 16178 0.824538
198 11879 0.372407
10448 6449 0.808233
19523 2248 0.661588
10655 9814 0.424001
1023 16327 0.818194
13192 13283 0.455809
4753 6631 0.762007
7303 1893 0.736181
3285 63 0.212606
830 3206 0.251421
15413 15781 0.187461
1131 2757 0.789941
9322 18221 0.322919
16503 10336 0.0962028
14565 19582 0.369925
115 10342 0.488379
9307 3833 0.0576052
22 15085 0.853523
14391 4768 0.243451
15153 6656 0.0350713
12054 16342 0.181823
2373 9923 0.869764
17282 6900 0.636949
5490 9878 0.281548
17031 14059 0.790787
469 10539 0.402649
10531 9977 0.978059
4590 14472 0.997411
9016 16469 0.940202
1420 8288 0.151114
9504 12185 0.540428
1615 14992 0.558229
14624 12424 0.69202
4578 13287 0.99432
6297 4817 0.00772389
977 13342 0.93812
14033 16364 0.70421
11287 10341 0.185751
12550 9775 0.280105
17119 8728 0.560781
13015 15705 0.35961
9932 13301 0.678065
11963 6196 0.820977
9001 1283 0.0852038
14688 6390 0.445513
7991 10900 0.549789
5370 10652 0.243135
14517 7012 0.796486
2347 6834 0.227354
18725 5160 0.191483
18665 11830 0.493661
9421 5034 0.405549
9230 14766 0.894372
2614 8236 0.710976
17746 1153 0.160386
8295 15314 0.857417
1120 3951 0.864337
7579 14497 0.367573
7141 6357 0.571291
5849 10554 0.992453
12832 17925 0.628725
84 6370 0.868233
2769 631 0.451223
15588 1201 0.592936
6989 1291 0.519459
9323 6375 0.868943
350 9760 0.441663
4677 12685 0.268352
8151 6334 0.707321
4765 10326 0.378797
14113 2149 0.80853
10537 11489 0.138075
4636 4022 0.255498
8025 1169 0.469831
15139 5240 0.890998
9820 397 0.941727
15712 19730 0.474063
19955 12692 0.963788
5187 17342 0.221701
12198 7395 0.253634
9407 9921 0.753841
16271 3607 0.421006
8928 14700 0.768073
5038 12465 0.00969185
759 15508 0.415459
3933 2784 0.368262
9541 7468 0.608069
1222 3063 0.957451
7302 16263 0.418312
15100 8122 0.471126
10079 18024 0.293808
14100 6607 0.725468
4092 6702 0.586716
7087 8930 0.103255
2623 16250 0.576982
4227 14531 0.316857
6538 6065 0.748638
4205 2117 0.0391942
7226 17691 0.612006
6479 12613 0.977807
14495 6471 0.893961
8187 6191 0.414908
7361 17542 0.912083
18137 2958 0.647227
13706 741 0.399046
2818 18262 0.881383
10572 13336 0.512686
11625 2585 0.886212
7695 6496 0.675748
18673 16158 0.402026
5307 11140 0.750983
10918 1186 0.0942876
11560 11479 0.190744
2204 15705 0.739549
4152 2141 0.0736672
12684 2078 0.898669
7665 17315 0.617043
3593 8623 0.785367
6309 9485 0.122584
685 6536 0.804777
10325 19777 0.142481
3271 9696 0.467206
17546 1235 0.0878386
5043 6340 0.538487
5947 12226 0.101865
11047 11222 0.738116
10624 13565 0.401227
4409 11655 0.242352
1430 10897 0.0183786
10256 18000 0.482123
13553 963 0.589095
9132 4023 0.891186
4516 19207 0.272347
13106 5856 0.430855
19775 16171 0.393283
1367 4328 0.95603
9443 5216 0.530081
13394 494 0.334668
2104 17309 0.0447404
12272 2990 0.104059
10959 8580 0.352857
5408 9421 0.522025
4603 1314 0.795548
5864 203 0.0133262
11322 9789 0.7996
1549 14394 0.211074
10431 9672 0.598624
7229 4299 0.285062
8245 5615 0.0839771
1385 13836 0.534672
15148 15281 0.560637
5957 12609 0.766726
7715 12542 0.491178
4177 8940 0.237394
10566 3612 0.301934
655 11619 0.0664207
11206 3320 0.574456
8482 13508 0.247422
11104 18214 0.506408
10217 1316 0.686231
3768 13680 0.0441759
3729 10079 0.546813
18754 1635 0.903488
5426 11811 0.643134
4456 13841 0.552823
8375 15951 0.42029
4328 4403 0.139048
1541 16297 0.47224
5375 6555 0.860846
10595 13665 0.792335
11894 4003 0.945919
11557 6511 0.979298
6473 5850 0.216511
19477 3532 0.883877
13718 8083 0.664783
206 5542 0.965761
5847 2517 0.759566
4950 2052 0.125524
8610 17489 0.134372
1653 1505 0.400518
11224 7096 0.979515
11706 8417 0.156931
9711 8086 0.627475
5670 9825 0.0916098
15911 2512 0.167005
12286 5317 0.419249
11589 9397 0.178852
1328 13905 0.298572
3265 1453 0.330512
1972 13272 0.227007
16427 17891 0.146314
452 6289 0.561173
1820 19378 0.592194
10020 4630 0.627138
19818 19984 0.187291
5670 19292 0.559608
7079 12272 0.785149
11675 11831 0.48721
17791 9731 0.832908
2499 5734 0.431773
7977 18433 0.349731
11205 11332 0.420445
8632 10462 0.776898
10289 15364 0.703561
11599 11129 0.212079
11003 18902 0.94981
11114 2786 0.739165
8883 9933 0.909796
15105 6955 0.678042
3831 985 0.0978157
4400 19896 0.378521
3501 12396 0.912744
3733 13240 0.612043
8793 583 0.683782
7348 8252 0.670203
8445 15814 0.302736
729 3549 0.237788
10051 2168 0.0491585
4575 1342 0.915596
10235 12466 0.599057
6202 11411 0.682956
10023 10118 0.917576
19884 6843 0.189082
10398 4674 0.967755
17589 2730 0.6186
13249 19281 0.0740873
9889 12209 0.607698
16515 13275 0.313639
8374 11246 0.644148
6963 19026 0.569848
6814 3151 0.68049
11392 10304 0.797407
1534 3871 0.126597
6940 16645 0.544705
16477 10916 0.264715
8623 11701 0.0563774
15676 17859 0.859351
1498 10847 0.562992
2298 18543 0.820977
3606 10571 0.205031
2500 3080 0.639094
7222 4103 0.114782
19197 7552 0.36257
18868 1786 0.0865252
12475 18367 0.380973
5310 9313 0.319406
2578 6166 0.377784
13252 3780 0.87792
19245 3032 0.060512
2032 11753 0.290048
7900 7588 0.903947
2507 1889 0.3255
8902 3882 0.866707
4294 10335 0.879181
4415 6567 0.85112
12755 3116 0.487789
14233 3400 0.180807
10400 10355 0.398921
6820 2162 0.509312
2186 6020 0.234182
17656 3277 0.120712
244 7847 0.277512
5023 16668 0.987346
6314 7510 0.991987
242 9120 0.271965
3914 3420 0.928126
6215 10688 0.806331
2548 2125 0.132985
7044 2206 0.519803
793 2686 0.0954518
4525 9480 0.296022
6299 271 0.691979
12085 16583 0.559849
16362 10657 0.632842
4785 14237 0.654107
618 7193 0.27605
2005 17022 0.763887
11 3682 0.854237
8186 2887 0.8641
9249 5418 0.547833
1551 12833 0.944114
7732 8980 0.56315
4289 1822 0.807179
17012 14840 0.728887
12262 9328 0.486367
16450 9835 0.0599809
16148 7665 0.518198
5809 17224 0.816523
7379 4798 0.626468
2750 13996 0.648812
12939 18116 0.069837
11662 10259 0.374551
11604 2506 0.840794
6361 12961 0.314556
3102 11072 0.834279
6346 3530 0.929947
18180 5327 0.534922
11113 9823 0.49943
9371 7457 0.481147
3015 6139 0.136008
8084 1647 0.944164
4452 13050 0.215187
16892 6115 0.561269
603 9908 0.241931
6050 13174 0.633993
4314 13633 0.889993
325 604 0.553251
3987 2833 0.519771
6213 15140 0.261781
367 4709 0.55635
14660 12966 0.502869
5300 19029 0.43222
12556 6718 0.962647
10147 19471 0.299619
11899 9725 0.852014
5991 8523 0.278155
2578 7628 0.502692
2805 2887 0.544533
3844 12665 0.626326
171 2976 0.248725
15906 17977 0.0318549
18507 5369 0.248224
743 10959 0.390081
10825 8539 0.898761
17846 14303 0.264037
9821 3211 0.840116
3019 14541 0.589555
9151 7485 0.282868
13694 19724 0.389795
1904 4623 0.328372
16141 11468 0.3675
6847 3249 0.876543
11182 17713 0.388341
10483 7534 0.0558117
8370 7811 0.106519
9673 19397 0.333826
2669 1518 0.122339
17845 3925 0.42474
11686 10790 0.0223642
7694 17588 0.741581
3864 7097 0.0159234
15823 3096 0.0535486
11494 5279 0.759386
18610 5997 0.569778
9593 17355 0.346233
8202 11224 0.505893
4275 1650 0.462639
13411 1368 0.0324259
449 16550 0.899254
17551 8311 0.653226
19260 14383 0.801755
9514 10070 0.245095
9100 17373 0.761876
10600 4326 0.11595
18782 786 0.859259
5933 12031 0.283428
4233 3401 0.135084
8565 1147 0.0491324
5709 7812 0.717173
12754 7910 0.649594
4748 15093 0.744873
12523 2196 0.276746
7347 8764 0.65248
9731 3520 0.575368
6023 14974 0.435559
5582 9615 0.337766
11644 18179 0.148775
11135 5554 0.176132
15309 1518 0.0697477
13809 3592 0.114707
12966 5325 0.667103
2517 5429 0.0999567
5454 17462 0.416077
12954 14507 0.603988
5852 3462 0.878912
1833 3988 0.0522393
18919 895 0.165294
12205 6428 0.556121
10432 5048 0.596466
14172 9816 0.400836
9446 7404 0.0583551
13345 11964 0.492669
11019 3469 0.80853
10447 9217 0.769641
18311 6858 0.43763
3301 5995 0.96059
7937 6957 0.795571
11400 11327 0.169578
5696 5203 0.815893
3 1009 0.000833123
1873 2205 0.693895
1696 12571 0.461797
3583 7018 0.465915
4426 8543 0.874572
9357 6641 0.65642
1673 9441 0.484868
14118 4363 0.637283
7731 15952 0.293704
4832 14876 0.789847
6676 16144 0.365396
19024 13924 0.00184792
791 291 0.34444
2607 9795 0.0511536
3631 6122 0.0457484
4890 9434 0.654394
11426 2860 0.412985
5053 3988 0.808741
15229 11132 0.163615
559 10432 0.0491741
380 10527 0.104286
19934 17804 0.0369782
7112 5728 0.295141
10587 13675 0.330527
10757 16860 0.395611
17972 4245 0.364411
12840 9263 0.145972
6696 19917 0.724655
6083 10814 0.0158475
19879 4825 0.469471
6059 3922 0.118131
10248 13961 0.300135
17012 16692 0.273013
6835 16735 0.124916
13586 13512 0.548756
19565 10903 0.2086
8500 3756 0.436517
1056 828 0.425267
5872 7128 0.436736
1313 19639 0.728788
10519 9605 0.496989
18124 3622 0.619693
8243 2024 0.626184
9188 11083 0.431528
8691 9137 0.62857
16630 7898 0.991535
9436 7573 0.995684
19112 1440 0.903811
17512 11810 0.106091
19606 9750 0.810122
10328 2327 0.881491
18207 15322 0.821021
4225 5576 0.30542
5907 4012 0.703986
3740 1038 0.765727
15893 1728 0.94123
19393 10654 0.796973
16920 10513 0.134116
10571 3700 0.143487
18012 1237 0.713317
16720 3683 0.171486
11771 19554 0.122785
8356 3087 0.933648
4368 14453 0.896066
10137 13538 0.158151
2763 2041 0.417516
8777 9286 0.30869
8839 19752 0.354131
9349 16674 0.915741
5281 8002 0.79174
10750 12116 0.261805
2253 7502 0.346843
12027 10451 0.0984945
6477 563 0.642546
822 3282 0.651812
824 3625 0.00204022
15706 10282 0.2251
6144 16454 0.769913
264 14174 0.197036
7591 12829 0.803459
1369 11296 0.746756
9150 9194 0.506396
16213 3340 0.488379
2842 6517 0.820692
12754 19789 0.30767
28 7146 0.634016
7397 12520 0.806558
8887 19650 0.904859
1497 6118 0.179686
4367 8301 0.81733
7883 12652 0.126445
7859 2679 0.602866
12556 7348 0.175102
3073 6217 0.111047
8245 871 0.96341
4174 7114 0.380748
6385 9539 0.0851807
18909 15225 0.560329
1684 6971 0.959101
19293 13333 0.917108
1802 17946 0.66034
104 19818 0.813365
7384 10036 0.838651
19016 18534 0.676283
12227 13881 0.801664
14543 6041 0.0141033
12935 964 0.727562
4176 94 0.405242
2215 10153 0.448695
19387 4986 0.68884
10969 1819 0.359798
10392 2842 0.211651
9406 5321 0.815895
16314 2760 0.277512
7558 6246 0.427757
11131 9588 0.952785
8629 11835 0.545715
11063 11754 0.248801
2554 10019 0.303873
690 10240 0.669543
6224 3384 0.828602
13158 2345 0.140563
5546 11684 0.024741
7802 3436 0.901649
9408 1557 0.0138403
9031 11921 0.34382
2852 11570 0.64108
19243 4566 0.170786
10798 11570 0.361823
16715 5639 0.397615
9118 6208 0.725783
11221 3947 0.981069
15029 13516 0.107778
6325 12679 0.498161
17731 6594 0.275818
160 11575 0.399073
2642 7932 0.353107
15855 7864 0.893565
9552 5253 0.500291
5751 680 0.985775
3104 12620 0.597136
66 4741 0.781217
43 9549 0.303873
7196 8053 0.223804
6739 17073 0.126992
2929 14539 0.717316
10244 15455 0.880351
5270 12529 0.789563
938 11253 0.743443
3188 12575 0.634156
6906 11971 0.0844744
6697 6642 0.460498
15294 17304 0.462377
13354 10974 0.63439
5497 16515 0.271626
17452 11580 0.90635
1060 3129 0.996652
9614 7390 0.703763
11759 10044 0.275944
2751 10640 0.17588
6892 2490 0.641361
8898 99 0.598486
3809 652 0.338919
1253 8392 0.40766
288 5300 0.884533
11226 7342 0.431922
6786 1956 0.879448
9806 2682 0.907437
594 8272 0.68049
10237 18948 0.469924
17569 8437 0.328358
16358 3049 0.300794
8255 1687 0.472644
10209 3375 0.672508
6721 1333 0.6807
8990 12006 0.222736
5727 3654 0.474816
9608 4874 0.302769
9760 6102 0.62513
18611 17716 0.612932
5736 13960 0.396284
6075 6782 0.615065
9766 15025 0.242002
16064 15072 0.660406
9349 13091 0.699555
10013 8739 0.720284
14074 15573 0.771051
3 14125 0.951607
2023 15571 0.873914
13880 12394 0.555334
846 3276 0.561991
11061 8713 0.199081
6341 427 0.57729
12983 11379 0.291246
15756 5551 0.280291
5354 5446 0.592996
4286 6373 0.77848
2990 4630 0.437715
9956 3031 0.625029
5839 1421 0.0975483
5698 8485 0.918427
8911 11407 0.174994
16138 12010 0.838737
6262 6450 0.0675437
5216 18291 0.407275
10810 9773 0.692562
6659 16196 0.292672
11337 5272 0.00059616
11985 169 0.123796
112 12291 0.787164
11839 3261 0.746462
16862 3144 0.802192
7195 1077 0.592722
19449 5869 0.740869
14086 18891 0.0753225
18882 3493 0.0023097
129 3034 0.683902
6165 10684 0.581596
789 757 0.590864
11665 1588 0.378968
12464 10343 0.711486
1736 15471 0.718791
3216 15203 0.312929
16384 18756 0.0237203
8463 2473 0.347742
19633 12274 0.292088
4113 6051 0.576219
8545 7819 0.651974
350 6736 0.227044
1087 14434 0.662658
10351 11012 0.055155
3019 14426 0.258563
11165 1878 0.433641
9952 7904 0.434349
6339 18829 0.685747
17805 10184 0.0076568
29 5341 0.0561361
10442 9667 0.828221
6080 13118 0.623417
8041 5644 0.216511
126 11819 0.781527
10091 8295 0.474515
5564 7031 0.82534
1915 11482 0.476228
7590 4281 0.0401318
4501 5980 0.207661
2827 3862 0.866845
3335 14782 0.488623
4546 2767 0.255851
6866 3189 0.817572
8364 11130 0.55025
15525 12311 0.617233
184 11335 0.371542
11818 4590 0.344888
8389 11140 0.627857
11454 11451 0.402348
7466 5846 0.736671
7596 8669 0.820529
18049 10512 0.319197
14461 1219 0.208727
3315 14178 0.555629
6224 12637 0.821148
13647 2202 0.48924
3745 4301 0.40211
3764 17094 0.566387
13270 11518 0.0719805
17705 3690 0.945374
4888 790 0.610372
12229 2903 0.531847
1722 3081 0.882125
8793 6298 0.285439
427 3646 0.351484
5843 12332 0.0523066
17623 11458 0.502596
10166 5981 0.368423
19372 8640 0.982632
1716 8175 0.732867
11068 6494 0.104183
1671 6557 0.921541
10178 12860 0.788732
7283 8225 0.307964
16045 13288 0.891922
13071 2128 0.281593
14534 4023 0.407445
13412 8455 0.0736723
10602 5549 0.881027
8170 11199 0.122584
11549 21 0.168286
2442 724 0.261985
12625 12357 0.989374
1446 17081 0.402531
1396 5031 0.59331
16558 17466 0.155711
16197 18420 0.0641716
19015 3109 0.743996
16767 5752 0.787512
15499 11996 0.510712
8690 3090 0.30767
4266 1351 0.99684
939 6353 0.787164
5380 17065 0.954945
11477 18088 0.627631
18994 4453 0.322221
8911 8017 0.218396
6706 19109 0.0698499
6863 6941 0.749427
10036 4209 0.823521
7059 1339 0.777406
3846 1672 0.641935
8797 4885 0.530069
15340 6698 0.851292
12756 3666 0.0764277
13952 86 0.15774
3413 13827 0.227638
6186 3070 0.115695
6791 17217 0.511535
17888 4182 0.788262
10549 1682 0.947227
12515 11011 0.935051
17677 4844 0.263308
8028 12473 0.640391
3968 14692 0.229562
19672 1505 0.924278
774 5963 0.650652
16088 3999 0.162541
16616 9987 0.567442
14732 12685 0.394919
11762 3414 0.244388
8623 374 0.195128
18993 689 0.869263
18411 8819 0.48237
7904 6501 0.449758
14530 18832 0.145307
8532 8343 0.30458
3515 11352 0.628259
19337 4662 0.422864
8416 7908 0.366147
13257 16777 0.68673
4624 19632 0.725905
18829 19800 0.0827326
2112 7230 0.414969
15107 8119 0.767577
13363 6313 0.971823
11714 5617 0.321292
2719 1299 0.345782
13764 7155 0.679893
7345 3320 0.000591817
9243 6914 0.682474
7939 6730 0.224656
5350 5841 0.300077
8984 10635 0.315086
9943 9181 0.898686
11359 7732 0.192422
18808 2431 0.888704
11801 5298 0.995081
7877 11734 0.475177
8519 10912 0.405073
269 9461 0.91302
447 17265 0.506932
9345 10226 0.42664
6587 17228 0.396626
9398 1518 0.677141
12159 1919 0.582085
11215 4091 0.0210089
10418 14108 0.223546
6089 2459 0.573121
5271 16319 0.83211
3394 7194 0.0483254
9399 4704 0.452436
3335 19858 0.576745
17682 9562 0.999008
6190 7366 0.561403
5332 19262 0.0103152
19689 1575 0.0158475
8240 5217 0.056973
6807 3247 0.0507201
20 7320 0.227406
12295 11857 0.768904
101 9203 0.906998
12252 320 0.360518
7099 3717 0.480144
14147 9845 0.837984
1507 8761 0.680905
16902 3044 0.0990629
15869 15676 0.654777
14249 12723 0.364441
2116 8604 0.165383
6263 14154 0.571441
2475 2861 0.426693
922 5205 0.14814
18562 4955 0.877174
3963 9629 0.661762
2799 13154 0.155859
5908 13272 0.871665
18102 4603 0.536519
7802 3100 0.382262
2987 7289 0.455809
19700 15913 0.98961
5196 782 0.123008
6836 13648 0.44485
2677 6538 0.496878
18602 11886 0.914585
16080 19055 0.294681
17934 13069 0.790838
8580 18412 0.606265
17609 18591 0.714343
13944 7145 0.501551
939 8427 0.534629
1685 16927 0.983451
5302 8337 0.524061
9584 4038 0.78667
11730 10783 0.299666
8052 2803 0.960943
18780 13836 0.943451
5961 501 0.575547
4422 9785 0.688306
7304 6168 0.971484
3484 10302 0.280776
5770 16433 0.754797
52 868 0.462848
5401 13439 0.485381
838 2649 0.273643
2332 4658 0.242083
8508 12329 0.865406
12558 16454 0.695143
10988 7600 0.871503
11570 15561 0.342697
12569 6540 0.820177
10907 13849 0.873741
756 6376 0.150069
6557 1261 0.0319875
6672 5415 0.909787
11370 16115 0.222146
13883 18243 0.142741
3962 12204 0.360797
19852 9977 0.375416
14322 9691 0.806208
7547 9463 0.0285316
11513 3184 0.177899
3357 8234 0.115454
10158 8154 0.243978
6542 9260 0.485583
12847 10269 0.0196103
9519 9522 0.73123
4440 17375 0.81201
9555 11516 0.124466
2437 9165 0.568627
9164 18742 0.877046
571 731 0.262502
6190 4319 0.448389
7560 15905 0.839299
10146 10423 0.441299
6186 5737 0.161026
17941 10143 0.833691
19332 14801 0.980687
1951 7250 0.637941
7119 1629 0.692056
15604 13526 0.384772
4471 12081 0.393511
6955 11221 0.163352
13860 1536 0.517294
2273 10734 0.318684
16927 4627 0.153597
18669 15857 0.99692
4203 7212 0.929136
11940 11637 0.562739
3348 18767 0.626684
18331 4829 0.0566265
9396 8368 0.175671
5468 19273 0.868379
13858 4594 0.121698
13652 2010 0.780659
9451 1860 0.708137
4850 11964 0.526705
1326 11201 0.909165
6304 8185 0.738606
10677 7778 0.263129
12465 216 0.911737
4250 19635 0.961578
10879 9001 0.83999
4566 13 0.638751
6145 3843 0.147803
7226 7630 0.651789
14717 7620 0.246353
4556 6750 0.248725
8586 19057 0.68079
2378 1902 0.428886
202 17388 0.599782
6376 13799 0.942544
5806 6682 0.454144
8673 17875 0.995829
11378 9813 0.156236
18264 6410 0.96919
5873 11483 0.981534
6811 12016 0.760423
22 5294 0.648812
15006 9161 0.296795
1596 2373 0.771473
10991 12527 0.854075
10051 14593 0.983415
9076 15885 0.594268
12120 15920 0.995492
19371 10397 0.88072
19353 16688 0.877978
13511 8781 0.995012
5580 8016 0.217285
19337 11567 0.770118
9766 14654 0.00839213
9391 8005 0.531002
2531 592 0.394657
2630 7870 0.518174
5923 6968 0.99873
1458 9068 0.264988
12298 9468 0.889479
14166 2382 0.998755
2600 250 0.745153
6749 7750 0.804299
4915 10759 0.645488
10580 9745 0.215288
2282 57 0.888729
7353 6061 0.0653231
18480 1608 0.422295
5559 14016 0.769491
5422 6417 0.453694
5074 1920 0.374126
5163 2423 0.0228382
16462 10094 0.794905
6972 4859 0.424012
1106 7533 0.173273
6433 15149 0.41853
7409 11276 0.0837386
17270 5100 0.771949
9670 6524 0.809592
5767 6008 0.859902
15995 8768 0.309153
6627 6741 0.541745
16502 12486 0.524461
8320 16871 0.91707
1751 7579 0.0849951
3546 9230 0.766726
9370 8573 0.749916
13583 496 0.0541049
17923 9948 0.249036
18171 11889 0.748715
11980 1105 0.949331
5943 8814 0.609081
694 10568 0.47504
12529 14422 0.867133
7264 568 0.210835
11871 19337 0.404433
9155 13248 0.35784
5891 18970 0.594664
12627 1272 0.482123
2272 8122 0.246379
7505 2618 0.931893
870 2543 0.173154
8774 245 0.204648
2286 3793 0.339505
2780 10543 0.576283
10866 9684 0.838564
10491 1053 0.269099
6723 11420 0.834562
16922 14867 0.799018
5058 15469 0.115135
7831 977 0.303296
13584 11038 0.331875
9162 12874 0.0103847
5974 8287 0.140988
130 425 0.309794
5359 8767 0.19732
4191 19442 0.421818
5743 17772 0.582077
18021 8266 0.230562
8582 2936 0.63228
12208 6857 0.746064
7038 3400 0.204327
4623 9956 0.499122
9935 1602 0.399932
14741 18452 0.919705
946 2987 0.0260195
8943 9111 0.473283
12594 19779 0.695097
7517 9057 0.661985
6451 2629 0.839953
19412 13178 0.495834
5832 6780 0.0524443
15631 16477 0.14353
5666 9777 0.429082
6354 5996 0.292487
7041 16094 0.594679
19172 848 0.399624
5830 1531 0.442373
14643 10665 0.100842
11011 13627 0.299636
16824 11014 0.685225
12379 8888 0.399072
1132 2013 0.233064
13577 18835 0.173884
16770 7411 0.735193
3574 9567 0.215011
11207 6012 0.656099
11851 18608 0.302887
4744 11902 0.56872
14378 1008 0.291269
3824 14507 0.876421
6739 18798 0.116502
18005 4387 0.210865
9048 6167 0.845796
1728 10509 0.152214
10661 10554 0.0674504
19093 1695 0.0253536
12347 5438 0.254207
9097 2240 0.807377
5598 11028 0.826919
5575 13820 0.139964
7383 2272 0.894534
12855 721 0.335626
9415 10880 0.0305164
11879 19577 0.177912
10157 15932 0.382552
16380 10550 0.468191
7535 6540 0.391854
13858 916 0.782522
5347 16121 0.2085
4664 19721 0.797442
5124 8231 0.797155
351 96 0.32627
12520 15759 0.607925
1283 6347 0.00430779
5850 18501 0.861387
11568 16028 0.517359
6364 1729 0.161633
11877 5912 0.134817
14964 12923 0.825583
4994 260 0.872307
14406 10411 0.0627407
9721 9935 0.764595
11543 9603 0.327325
5967 3082 0.418756
12643 11229 0.333109
14966 9672 0.930973
4813 17172 0.645388
2737 7486 0.371542
7595 19914 0.431595
8354 8896 0.00736499
4610 1071 0.896186
8597 18726 0.479462
19757 18644 0.723189
1639 6369 0.323948
3986 7196 0.509303
6001 12471 0.352422
4046 10699 0.925524
19331 9938 0.0518712
6025 14893 0.468538
3388 7753 0.494436
19471 44 0.141914
14411 12523 0.333109
6759 6464 0.847
16664 4186 0.524904
5493 11259 0.431787
18641 9134 0.117612
9963 9199 0.724359
19358 7353 0.251137
12021 1080 0.85016
11228 9709 0.205802
4984 12360 0.791956
1646 15322 0.727471
17087 6896 0.108062
5667 19082 0.0477981
4469 11445 0.491559
4563 16394 0.0664866
13575 18442 0.0263067
9050 10290 0.124198
9331 9554 0.558928
19840 1059 0.858597
2641 15297 0.717219
4418 7982 0.96443
5735 7396 0.233902
4097 17450 0.295509
13199 10520 0.421116
4188 6217 0.0143347
5693 11702 0.164513
7222 3504 0.484128
9960 15614 0.676872
17372 14404 0.269991
3968 18464 0.958703
4148 4032 0.665147
12816 19325 0.382824
3715 237 0.807121
18693 3495 0.228897
12048 18094 0.628629
13616 3655 0.359198
3436 8902 0.527151
8848 7385 0.335027
5529 5345 0.147683
9502 5394 0.25578
6532 1437 0.299398
6223 7232 0.629088
1260 15874 0.75312
5438 8022 0.787726
1854 10807 0.454905
1676 13375 0.411311
6610 5092 0.0276439
9995 6859 0.491717
6678 13352 0.685013
16281 14702 0.80221
5391 11769 0.897118
18746 1806 0.397369
2433 3336 0.00145933
6470 18815 0.758096
4491 18034 0.351314
9278 5230 0.214619
9738 9997 0.994182
19497 12760 0.164765
3447 1577 0.920343
753 433 0.820608
11956 11202 0.411342
19380 7539 0.462184
9020 11434 0.233762
1269 4158 0.227364
9086 7611 0.209847
19228 10838 0.448286
4493 17098 0.127651
9161 9970 0.508126
5761 3801 0.675115
2448 4751 0.0961235
3921 1153 0.925524
14889 14268 0.939533
425 2768 0.274819
6872 3345 0.232558
12858 3116 0.972509
5857 6919 0.573537
104 8564 0.550523
18446 2553 0.197504
860 4618 0.238993
13026 11612 0.990904
6983 322 0.0328138
8730 13701 0.391031
6198 4595 0.152627
10791 8287 0.617201
4840 3399 0.21824
16883 529 0.144026
2596 18013 0.698627
8208 3289 0.251505
5019 11565 0.763511
495 3463 0.500144
794 12533 0.631833
17263 11879 0.976288
6249 4390 0.446222
6314 7014 0.911737
3884 7675 0.598015
597 13424 0.896108
8017 8656 0.227673
9984 7859 0.0766246
10956 16883 0.531318
71 694 0.175353
9274 1060 0.924278
1485 8610 0.418312
9313 16194 0.364214
6652 3856 0.0951728
2106 10806 0.415011
14006 678 0.326129
19597 7497 0.133772
15744 11858 0.0914793
2309 5947 0.310955
11870 12172 0.578943
12231 7373 0.194381
4575 3352 0.0869226
5701 1944 0.698449
7887 8370 0.678262
9470 19916 0.0412208
8495 15241 0.62083
3797 1248 0.374295
6648 11755 0.927377
11337 18587 0.333826
18422 5581 0.827722
7350 7654 0.475344
3217 5924 0.0134284
14754 12799 0.806273
1270 16583 0.547897
16346 1419 0.93204
6533 9998 0.625813
1731 2686 0.568085
7816 5807 0.45551
7948 1009 0.74004
7854 17481 0.658577
1137 2983 0.652136
7513 19976 0.280041
11687 13845 0.290921
4128 1477 0.0797497
15401 8078 0.188949
1167 15024 0.540104
3986 2427 0.289826
11945 12728 0.0365423
7121 14883 0.887403
19855 816 0.887484
11034 18980 0.64408
7535 8142 0.920865
260 17655 0.864459
16457 5117 0.924495
12182 14500 0.947567
11317 4474 0.974467
3360 11695 0.985266
1520 2626 0.200648
11999 3771 0.727744
9709 18470 0.22711
14284 9938 0.164513
9869 1960 0.0588971
18191 17658 0.560072
11556 18113 0.194604
11454 1015 0.471884
6787 8522 0.172635
10576 5476 0.608029
1351 6056 0.865912
8382 8908 0.427647
4822 13550 0.431822
12658 10311 0.670449
1711 17332 0.344689
3035 18864 0.540626
9918 12531 0.733611
8224 2369 0.401883
702 12423 0.631455
2884 3206 0.795802
16893 3202 0.377127
3871 5355 0.00637703
4117 236 0.405073
10943 9647 0.530525
610 5878 0.462605
7523 2060 0.968269
8299 692 0.18728
3019 6080 0.283428
10220 4145 0.953458
2507 6171 0.877444
18289 15091 0.354855
6956 10474 0.127534
3154 3081 0.355763
12892 10066 0.933992
54 14351 0.772853
411 10946 0.986363
15029 3426 0.269233
15428 11959 0.949362
2472 12477 0.695097
2369 91 0.841013
6464 1354 0.000207572
2637 2209 0.0465438
4496 6742 0.185078
7036 1495 0.369454
11753 18462 0.768504
16332 7946 0.810572
3919 1209 0.869354
5289 8131 0.591291
17509 989 0.387879
8258 13988 0.310772
358 5126 0.747767
9230 11181 0.723743
5632 7504 0.55942
11909 8788 0.51466
14181 2373 0.413298
9764 7605 0.736746
12102 11332 0.724919
2076 17894 0.360728
7024 14395 0.270818
15681 8740 0.521046
4905 19088 0.839418
13506 13639 0.093361
9926 3261 0.337116
15373 3926 0.271551
8872 17703 0.819516
6512 11472 0.102995
7701 11097 0.687272
10666 11765 0.458844
1206 18235 0.505893
2345 12404 0.653829
6231 638 0.989161
10888 16970 0.615541
6273 2576 0.709361
13035 1832 0.517586
1477 14018 0.390598
12596 6598 0.920102
13663 1673 0.559191
1851 10169 0.0701742
18357 14782 0.245685
19336 4993 0.00366127
10873 5284 0.127421
5453 11615 0.936673
3441 5586 0.751994
989 4098 0.521046
4340 9418 0.901564
11929 19114 0.14697
7306 18700 0.113348
5143 5626 0.844245
4885 9754 0.577837
9679 7734 0.725095
5947 9482 0.214729
12276 11392 0.630603
7238 12059 0.681949
11901 9484 0.73454
1190 10351 0.55854
3927 7622 0.482398
5420 10964 0.745599
8022 8744 0.750018
7656 6334 0.607943
4639 6794 0.378137
15855 10044 0.714495
557 16574 0.513013
3662 13147 0.556579
13532 7938 0.512365
14087 11846 0.413226
2441 5739 0.927899
5030 3727 0.220193
18860 15216 0.856008
15608 12572 0.856648
3891 10256 0.0496176
10587 10122 0.165752
19697 338 0.215502
16313 2491 0.536846
329 5517 0.739849
2563 16424 0.938289
7059 4682 0.231536
19197 15990 0.759691
9849 7379 0.892968
1279 4437 0.525261
4530 3248 0.225165
559 3567 0.66743
4097 3501 0.437395
9667 2393 0.616284
17008 9828 0.239624
9725 10741 0.324311
11617 13970 0.130313
14685 7018 0.256888
973 7731 0.777397
13954 10713 0.823844
8605 7262 0.72659
725 9445 0.519135
6197 5613 0.816303
9366 1046 0.173896
2829 452 0.52978
5333 17744 0.665133
9149 11813 0.899355
5272 10979 0.709856
2610 15697 0.87367
5496 9195 0.173865
5506 4213 0.291139
10766 12030 0.257604
14726 3929 0.891894
2220 2751 0.714807
11288 8489 0.638536
61 6479 0.947802
12168 15544 0.141791
19860 16301 0.303194
6446 14990 0.984567
1261 11018 0.512232
11330 8202 0.0441759
8656 9853 0.933048
951 15953 0.705754
17071 11679 0.44491
13116 12594 0.347558
5540 18779 0.333525
1609 15242 0.257016
667 2379 0.412997
5419 16912 0.223546
7932 15845 0.929258
3605 6964 0.0201307
8944 13028 0.393929
3004 8519 0.987773
17031 16694 0.238303
9896 1466 0.120741
1120 13838 0.808374
16640 3953 0.141073
8270 9969 0.886481
4701 11777 0.474218
8337 16031 0.686039
6835 1918 0.834611
1848 3171 0.205623
7313 7683 0.437112
8262 19358 0.34208
8058 11596 0.360115
6292 5632 0.411952
15853 2323 0.133168
3031 8170 0.277966
7964 12514 0.705654
14996 1590 0.633905
9690 5738 0.658145
10332 9342 0.49577
16055 18893 0.488995
18757 835 0.910017
19442 7305 0.134495
12726 12301 0.736058
4755 19916 0.0934717
9119 12072 0.714857
7060 11742 0.302515
10093 583 0.564544
518 8926 0.54928
13779 14539 0.787818
10261 5129 0.0648018
3557 17577 0.135126
7105 10967 0.576729
2292 16559 0.22711
15209 17857 0.70546
10386 6111 0.369797
13537 2821 0.975685
2410 274 0.397615
8503 9482 0.438953
11025 3144 0.612456
12390 2381 0.316595
4422 6768 0.564696
5342 6667 0.277609
16777 6236 0.719951
14492 7599 0.941878
13311 7682 0.202136
1905 10347 0.172457
9007 1482 0.995844
5974 8195 0.0842479
17053 14041 0.400595
2742 3986 0.158726
6571 16188 0.322508
7039 17852 0.445759
14417 5147 0.124429
7171 3660 0.34584
10809 10555 0.470984
8472 8425 0.351443
3533 5013 0.993036
1400 6123 0.761566
17872 4260 0.72369
11810 6759 0.339342
16803 7110 0.207345
11590 9487 0.435459
10678 10749 0.820546
458 3684 0.642517
14316 7525 0.363134
17841 9926 0.62506
16935 10871 0.998946
9489 9385 0.905165
7447 1447 0.428841
14194 14441 0.720567
2243 2337 0.748016
1438 4010 0.80779
5260 2228 0.731283
12733 12084 0.436255
1148 790 0.341927
10422 12142 0.632877
5321 17115 0.251411
11651 7552 0.984941
3157 8171 0.772053
8940 4477 0.953458
12687 3310 0.793055
15398 12171 0.556393
10266 9663 0.618137
8082 3184 0.929386
7108 3918 0.874171
3451 6321 0.111378
1246 7854 0.372131
6857 2366 0.326309
15749 282 0.864486
1501 6600 0.707143
16333 11050 0.614471
8401 11506 0.411348
10651 9109 0.61104
11675 10679 0.824942
17926 14419 0.0378068
775 15642 0.391816
12761 14694 0.494712
17016 2507 0.0267043
5837 1503 0.93819
9128 1449 0.59328
9756 8979 0.800167
3475 9444 0.7659
935 16623 0.498457
9172 10824 0.753701
7229 9795 0.702286
7797 5222 0.65642
12231 5141 0.523356
12001 2266 0.505913
17756 12651 0.968876
935 7071 0.56761
4240 2648 0.210777
7777 7739 0.455043
814 4806 0.85047
10545 2691 0.303811
11966 18158 0.928707
18510 9959 0.813154
3496 7956 0.80011
3777 10390 0.7898
8228 6558 0.829963
5820 4444 0.236617
14487 19690 0.676226
11402 12887 0.385256
1079 18479 0.425983
5074 1854 0.562992
7551 5811 0.912564
6528 17534 0.226375
16130 3657 0.317186
3085 9705 0.633004
16750 8400 0.371255
17718 10413 0.649132
8307 7907 0.142756
11036 1444 0.0768145
1063 10929 0.676889
15095 10343 0.598868
3446 9614 0.877454
9938 6121 0.0994919
8041 12562 0.501344
12033 18673 0.229839
15213 5968 0.201131
13866 9508 0.350502
3704 1647 0.960323
16619 3049 0.374949
9931 9950 0.655886
3053 9795 0.0432804
9640 12350 0.659826
13611 3442 0.416895
11329 6520 0.333857
8071 18795 0.728311
10431 6032 0.880971
1529 6253 0.641198
2914 4546 0.0240911
18792 5069 0.404694
466 9221 0.869337
662 3701 0.833505
2226 10570 0.210346
15731 17868 0.565868
6781 5183 0.366277
12376 10135 0.0176806
3493 4599 0.544723
6254 1486 0.27289
19141 4751 0.865884
4541 15885 0.52696
2841 18174 0.523647
14000 1126 0.647183
14999 10388 0.220685
5228 16276 0.791102
7389 519 0.680905
9108 2420 0.828272
8050 5194 0.997656
9952 16415 0.451408
4862 7802 0.49131
5077 8425 0.127768
6873 14178 0.555334
6281 3435 0.0174474
7482 2406 0.851439
3818 13736 0.443895
11418 19397 0.681644
2576 9768 0.744105
8515 7869 0.178747
11527 14989 0.735607
5165 3567 0.309352
17476 17479 0.600585
8901 5134 0.294994
10509 7267 0.551552
5287 9552 0.085666
9040 4090 0.941692
2308 2582 0.218338
19106 11869 0.0370269
13 9611 0.308943
15253 7534 0.944869
4993 8870 0.000799229
19005 9712 0.495983
14884 7857 0.427468
239 9849 0.945176
4121 12210 0.951607
10323 1878 0.690655
14237 11782 0.117838
2110 14353 0.183072
10660 18574 0.267167
2052 7965 0.528906
3468 3038 0.875899
4954 1418 0.845796
4737 1312 0.000749335
9887 15606 0.494495
16191 1800 0.132578
18940 19914 0.170811
4188 10112 0.959028
18895 13533 0.98258
10338 11814 0.798165
10358 4012 0.627552
6574 5688 0.67802
11707 12831 0.669964
10490 10893 0.842757
6426 6777 0.722208
3180 7816 0.975933
6987 17547 0.326309
7753 17612 0.227673
2611 4261 0.00133163
70 9401 0.804299
4740 7869 0.437834
5996 19181 0.169694
3127 2093 0.587559
4823 5579 0.799018
10072 13037 0.371978
4399 6225 0.379046
11899 11511 0.586831
11094 12934 0.188157
6582 11741 0.599173
2943 78 0.0540914
12238 8468 0.686178
11048 1058 0.626356
1699 3900 0.451039
8382 11920 0.825446
6064 15952 0.962164
10315 19672 0.341926
9500 11911 0.793361
32 18133 0.877804
13151 14996 0.0782108
4819 3223 0.640347
56 5869 0.717248
11711 13273 0.217015
9994 5180 0.689679
1525 10209 0.20239
16644 11793 0.207913
1968 14501 0.965394
4355 4033 0.862443
6552 4696 0.780643
10959 10102 0.864197
19127 5605 0.893805
2533 17905 0.908051
17401 8619 0.856008
2833 6965 0.345039
12593 9741 0.847768
6038 9670 0.863272
1671 2943 0.658236
18087 3739 0.902516
4206 12371 0.559045
7792 1728 0.713088
15563 18027 0.402592
10042 7518 0.611263
12004 5781 0.177776
12289 15808 0.821851
9417 623 0.161075
4561 730 0.310162
268 6028 0.636586
4158 9438 0.692896
11942 14694 0.624238
5078 7535 0.972925
4675 646 0.638491
16140 15210 0.981029
7842 11616 0.731874
4822 7496 0.224596
6007 13100 0.800016
11059 5694 0.658746
16528 3089 0.93022
5280 5480 0.528573
6577 15608 0.685526
15833 4683 0.985603
6573 16979 0.659739
19249 9036 0.236787
7525 10854 0.837245
299 5743 0.81464
12817 12008 0.0542653
1854 7341 0.530026
18723 8307 0.663783
6986 6249 0.82729
11435 162 0.0916098
9067 4589 0.182133
4472 14665 0.92271
18920 5300 0.990979
4678 4552 0.880001
17406 8136 0.745382
10789 571 0.791605
2285 9926 0.737867
14535 8997 0.0953628
14960 5105 0.944803
8760 2371 0.126455
9298 12191 0.426646
5952 2771 0.114475
19949 2397 0.0301718
1258 7264 0.111446
6603 3412 0.834593
4949 19996 0.526794
2661 12590 0.646692
5361 2517 0.994289
9166 2183 0.406021
11761 9952 0.234732
15063 2320 0.840116
9738 4963 0.389563
16654 8080 0.769853
13548 7107 0.905191
15221 4513 0.545655
8207 4688 0.886924
18674 2762 0.396076
4321 16358 0.639261
12721 2119 0.945374
8601 18673 0.324137
15446 16118 0.354478
786 8917 0.613487
17746 9932 0.976413
10413 8179 0.148951
2397 15878 0.0689185
2624 11713 0.51691
2720 7444 0.205868
2145 4332 0.452317
3004 6695 0.193347
5064 13107 0.0965153
7555 4826 0.617201
505 9099 0.584645
3303 8331 0.929258
8570 7240 0.333152
18797 11955 0.0597713
738 10601 0.17764
16728 4116 0.916553
10308 7813 0.390564
16986 16113 0.994289
7265 12381 0.0410427
17116 8556 0.445471
6602 6866 0.319928
15272 9474 0.0324078
17581 18621 0.598074
8283 2577 0.722307
10720 12472 0.713466
7279 15802 0.927342
2971 598 0.16642
18568 8936 0.0175289
1540 6140 0.46598
15728 8990 0.555988
4240 6900 0.179252
12529 12033 0.487673
11352 7002 0.664374
2126 17836 0.326264
14598 9323 0.177411
12215 8442 0.559545
6116 2126 0.377191
979 5518 0.210094
1855 6037 0.460559
18795 10572 0.867607
13164 11187 0.25892
8602 12551 0.248995
16306 1573 0.213538
5503 4818 0.96162
17303 11937 0.563414
19177 12143 0.47224
6201 18953 0.466597
2095 15199 0.907081
1685 12167 0.43896
18264 3214 0.858714
7156 16650 0.268387
1230 2848 0.644392
5205 12298 0.324832
6332 8072 0.230913
12634 8090 0.154445
13350 18156 0.75457
17637 10269 0.152159
6966 11570 0.169231
14761 4156 0.403832
4146 14485 0.538232
13193 8191 0.70731
5688 935 0.436531
897 11865 0.818927
4898 33 0.340534
2412 7842 0.657548
9798 2621 0.847095
1935 14345 0.847336
9234 5701 0.873266
10031 9060 0.521069
10299 5643 0.233729
13405 18045 0.756004
270 4957 0.161021
13541 14725 0.420581
4745 8858 0.52175
15200 13558 0.56627
5725 576 0.545593
3934 5585 0.31861
17848 5845 0.453182
5121 10359 0.619754
4865 14752 0.80621
13781 6487 0.0265394
145 3547 0.229481
6818 9929 0.524939
11801 5423 0.2467
9808 11071 0.986954
401 5908 0.0192157
1015 6535 0.588949
7573 11280 0.193831
15749 2542 0.971502
5138 6746 0.618324
4044 2691 0.985
10980 16995 0.559408
2991 7796 0.393805
8511 4452 0.384195
1107 9710 0.460814
9287 19048 0.0592549
3524 211 0.825652
11656 11324 0.366972
6290 10549 0.188157
3923 3487 0.378917
9965 10060 0.220799
419 2374 0.328358
11876 9621 0.626468
5617 2539 0.1651
10489 1137 0.229057
16228 16808 0.885829
5338 11718 0.39552
15263 2969 0.494336
9696 9592 0.633234
8574 9805 0.719066
10202 8601 0.290869
4423 6597 0.347329
2099 8746 0.985395
12084 1457 0.4995
4505 6950 0.430329
1440 4814 0.76472
12063 1452 0.84298
8600 8482 0.271476
18163 105 0.34208
1093 2951 0.140988
4917 9203 0.737649
8865 1583 0.33892
5949 8601 0.0858705
1039 9421 0.59812
9537 14173 0.333826
12087 1926 0.931299
6188 883 0.451443
1460 4898 0.850364
18142 12191 0.898829
8533 4717 0.779056
17432 7702 0.316844
15851 8679 0.567355
11894 18231 0.740363
18318 7501 0.555406
13537 14411 0.51035
8885 2611 0.497726
1144 943 0.945945
4870 6006 0.396908
10199 16880 0.123442
3298 6736 0.936926
4821 666 0.233108
10454 9240 0.506465
6000 15926 0.0189368
10169 10734 0.079617
8160 12116 0.874836
19466 9077 0.974202
13068 2306 0.569601
415 19589 0.635454
8313 12471 0.469924
3508 424 0.674654
7564 19102 0.169201
16507 16910 0.889993
3546 11015 0.993086
5852 9001 0.450916
297 2461 0.0200456
16479 11288 0.35438
14843 8710 0.404432
14369 6822 0.470565
10463 5814 0.790965
8304 13615 0.769299
3136 966 0.250251
6249 6574 0.304419
19144 9585 0.507556
7125 2339 0.345922
582 9507 0.624363
13762 3751 0.682174
11315 19772 0.878546
4127 17145 0.348899
10307 4590 0.621853
341 4502 0.634028
6237 9181 0.33897
10229 18098 0.78271
2908 2485 0.75312
15745 4527 0.974764
5640 10074 0.514362
13440 687 0.275703
3461 17480 0.938607
1705 14543 0.902329
14013 8090 0.993472
684 8742 0.176308
2374 13563 0.620695
9899 3322 0.268646
2652 8632 0.118877
7130 12290 0.837288
1120 18726 0.148946
568 7484 0.349828
12229 4559 0.623417
9060 4281 0.356851
7660 6667 0.776798
10173 11328 0.190118
14958 8826 0.721158
1126 3015 0.105773
1381 2923 0.367749
13968 10735 0.829485
1089 19780 0.0724917
15137 307 0.40891
2110 10062 0.950213
1802 14369 0.0748797
5830 8947 0.630456
8246 1410 0.284806
6704 12470 0.584984
3538 683 0.0511536
11843 4155 0.755991
9502 786 0.766475
11099 10729 0.815373
5385 2272 0.666029
12784 6120 0.821698
10640 1201 0.81667
3440 5729 0.661925
5825 409 0.918439
329 18244 0.380364
8595 19908 0.589994
8928 6392 0.463968
15582 1988 0.226384
7616 541 0.744059
16028 4208 0.028609
7143 2172 0.666199
6288 9417 0.035378
4734 9677 0.716673
3564 13245 0.842344
14903 12641 0.923597
8916 4575 0.30063
17430 2896 0.404253
7475 7160 0.187597
16766 18998 0.658437
9627 4390 0.205281
8366 4467 0.535119
7582 2432 0.345999
14663 7987 0.727388
3017 19991 0.790949
22 8148 0.0175054
2901 5579 0.696086
2872 15232 0.179559
15244 11083 0.965916
7928 9869 0.963786
2309 14744 0.427042
7861 12767 0.529351
17414 2086 0.316281
8815 12780 0.585923
9905 19836 0.18966
4644 4910 0.052266
13118 18026 0.457256
3841 8279 0.406785
11869 4362 0.664814
8466 16689 0.848121
3328 4696 0.0849603
18121 8798 0.247476
4146 19795 0.800039
9246 1906 0.719615
17189 19154 0.273741
6150 13791 0.499473
1424 14531 0.526598
9164 8526 0.02862
6706 7127 0.91097
15891 11827 0.119929
10966 10550 0.2085
10073 16642 0.315878
9268 7186 0.324273
1248 10227 0.859459
10034 1204 0.440179
15519 19086 0.0641662
4826 4829 0.0663949
157 19875 0.0612216
3129 3500 0.797407
15833 4440 0.284989
785 11454 0.737275
8053 11650 0.934992
15914 12790 0.390351
4071 8887 0.65103
7765 6225 0.0617521
5547 9826 0.511537
7250 491 0.624908
6470 62 0.641834
1926 9829 0.156383
19250 12819 0.573745
4992 2500 0.643586
14878 7580 0.800167
4627 1578 0.373237
8846 9728 0.614421
9888 10920 0.425713
8788 12134 0.966805
16210 6718 0.204546
275 1542 0.0684779
11018 18349 0.954184
10094 1199 0.521839
3151 10995 0.345461
5925 2788 0.203374
6713 2084 0.611776
12579 7780 0.291139
15722 4238 0.521577
1930 6941 0.481315
14326 7947 0.375571
6808 10966 0.465272
9123 9294 0.950215
3449 11939 0.526629
16843 7306 0.0531889
12584 16609 0.56278
235 5834 0.337841
17710 19824 0.425604
670 19130 0.573975
5797 2539 0.812518
11702 7146 0.0861855
5517 18579 0.350497
14526 13626 0.70806
2873 17986 0.591357
9928 8042 0.778336
18822 2395 0.05459
4593 1474 0.696767
3539 12700 0.489224
6965 4334 0.735632
12644 13962 0.804748
12613 11392 0.0932617
11036 18815 0.721066
7994 11683 0.987801
15146 10499 0.280996
9414 9423 0.985572
7356 2329 0.786345
9637 11230 0.169231
8904 7892 0.121816
11518 19559 0.0172576
8750 10629 0.598567
5762 16586 0.485916
3502 6287 0.302011
4446 17941 0.979724
253 3056 0.531143
5456 12088 0.918908
4271 14668 0.16041
11055 12436 0.173971
1876 12471 0.175478
7456 13122 0.959464
10909 3767 0.512384
8043 1355 0.930574
12805 588 0.240175
10919 3986 0.212464
3587 1699 0.653608
11706 4932 0.575582
2714 5810 0.912696
8008 17063 0.205808
3468 5579 0.943836
6942 7775 0.337949
7067 9703 0.398821
544 4099 0.884453
3669 5635 0.332644
10463 16280 0.74619
2080 201 0.29474
7236 8888 0.176233
5705 4000 0.0823746
81 5077 0.930764
9318 15972 0.624457
11510 4219 0.850046
8712 2691 0.867487
19242 9214 0.433272
2879 6821 0.0320048
3370 3765 0.862804
12497 3235 0.302901
16400 14339 0.316509
4310 12050 0.801519
10441 13490 0.0754074
1788 12367 0.235841
4958 11505 0.0713475
8756 12153 0.724044
10077 17352 0.689898
2521 605 0.110939
8091 2655 0.420054
4525 12018 0.878065
13531 1098 0.194604
11229 15942 0.397369
1473 13760 0.431925
19340 1608 0.732345
12395 2905 0.862039
6268 11907 0.797407
19606 8029 0.831081
5861 9223 0.711042
7111 15790 0.759691
7661 3301 0.581212
8061 5693 0.861291
8836 4937 0.597155
12585 5155 0.333719
8005 9568 0.287009
13487 13856 0.227638
10716 16675 0.530836
9909 2656 0.784558
263 2280 0.250957
12532 10405 0.835947
5099 1817 0.624943
15 14593 0.835334
3504 9947 0.634406
9478 4573 0.793489
16615 3051 0.87296
169 5375 0.732515
5892 13969 0.860642
8020 17977 0.967566
1193 727 0.516256
12388 9992 0.912775
2201 8117 0.866417
11042 17839 0.459991
10460 199 0.865018
9057 10822 0.516821
1014 12166 0.0902875
14042 6929 0.318669
11400 12778 0.0902204
5282 4350 0.670466
12273 1419 0.143842
8560 8273 0.513238
17316 13737 0.89154
19256 1294 0.0164223
9114 18463 0.792892
2681 2320 0.0532263
4238 10177 0.0641058
6685 6329 0.228554
4057 10690 0.274213
7685 4560 0.267381
7052 10116 0.214968
7159 5695 0.314943
7373 18600 0.800133
9070 7420 0.115673
9072 11874 0.388357
5350 9522 0.00845118
3161 9871 0.118031
10301 1889 0.97042
6385 6659 0.847566
17781 7861 0.496884
4648 6050 0.52182
14288 13115 0.467703
327 17622 0.925402
14317 2012 0.0344723
379 16353 0.712217
1179 12532 0.647458
2716 8936 0.483839
9115 10107 0.925126
5054 15777 0.97174
223 11575 0.779788
5179 8825 0.39409
14365 7418 0.443991
6084 18832 0.875899
4444 4838 0.589452
16110 2863 0.736124
2350 9043 0.0575127
7358 3315 0.186178
12516 3041 0.798698
11703 17823 0.426738
16191 13798 0.0171397
11008 6897 0.771357
10695 16895 0.411432
57 17264 0.480569
12405 11263 0.561595
929 2969 0.34705
12156 105 0.607943
915 9229 0.993901
142 4239 0.934074
12679 15795 0.280251
15910 14795 0.474904
17401 9381 0.347311
4808 14357 0.95022
7786 1021 0.69383
1082 9010 0.00489035
19521 13422 0.576372
2614 17270 0.146718
3528 14656 0.163112
6331 6292 0.218011
13034 1617 0.371449
14660 2709 0.942834
14400 9539 0.989267
4253 3335 0.479638
8387 3009 0.740803
15008 16919 0.739441
2463 2896 0.197488
4936 19816 0.375571
622 10916 0.173253
9430 1585 0.424779
4062 12309 0.488643
6455 138 0.611263
5458 710 0.283263
4768 11344 0.917202
11168 7102 0.280105
3254 11399 0.575674
8936 3812 0.94813
11602 9450 0.988807
12228 12109 0.222547
598 8018 0.623498
5804 6627 0.906409
4515 9070 0.393805
3041 625 0.377322
578 3156 0.64692
10509 7908 0.404483
9127 2828 0.191966
14990 13101 0.665494
2192 16241 0.61148
10160 9390 0.0664131
2217 5355 0.0609241
12101 1887 0.10239
9760 4298 0.706589
19472 4064 0.306813
18274 223 0.551841
15217 12755 0.835119
4316 1175 0.357623
3914 2064 0.801199
4556 1677 0.722455
6373 10632 0.339575
18931 11221 0.954431
15623 8265 0.979677
889 3390 0.304378
1241 9989 0.377676
6436 7997 0.263308
11929 18638 0.516256
14606 10352 0.312104
445 19056 0.840967
3075 19659 0.830872
12876 1258 0.572903
12365 15731 0.946557
417 5453 0.804721
7940 17217 0.348591
16218 9681 0.426359
6095 12802 0.401674
4745 2700 0.743367
7601 1955 0.718213
11341 6736 0.710513
4557 17313 0.683869
6061 11029 0.876397
10636 9962 0.876387
884 19973 0.0779187
2876 3112 0.904684
6502 6542 0.29739
17433 1054 0.921723
8526 5837 0.292401
6090 11622 0.902062
12442 6777 0.887553
4662 4499 0.620482
53 17474 0.542474
684 3983 0.0765053
12688 11723 0.65388
10989 13834 0.381879
5777 15296 0.426047
5331 13506 0.388732
3397 11185 0.698503
32 9049 0.256052
1973 4445 0.356165
6657 4126 0.804245
8470 8986 0.694032
6003 1410 0.885516
12069 325 0.862518
18550 16199 0.643562
914 5005 0.902335
10337 12359 0.671319
7062 10251 0.901104
9712 13644 0.919465
12490 4730 0.496101
6538 4281 0.13865
8751 12143 0.131955
12737 2209 0.353294
8193 2125 0.159938
689 18228 0.855436
11191 2591 0.86197
2728 12013 0.529072
15300 18668 0.389269
3834 5064 0.75205
3946 1051 0.452544
11291 19165 0.910791
9845 4374 0.814479
19717 10766 0.875899
8521 11625 0.364379
1662 14441 0.704071
5384 9099 0.252255
2092 4190 0.642283
865 3246 0.708764
8141 12879 0.914968
4140 2536 0.797107
7361 2993 0.562801
8758 12640 0.255386
6787 4538 0.546003
168 17840 0.554598
11190 16303 0.299961
5665 12450 0.489016
7683 9439 0.505893
378 8383 0.920749
3743 11147 0.391632
13218 104 0.39217
7718 11688 0.0515731
7026 726 0.452023
15606 95 0.0435257
1969 9197 0.974168
8609 7694 0.785611
15655 19520 0.400268
4051 6776 0.852763
12662 7134 0.248198
8191 3392 0.723584
11832 1420 0.152471
14042 7004 0.364508
16346 5635 0.136896
5113 7654 0.813461
17353 14343 0.384551
5525 9382 0.317281
12893 5733 0.896016
5449 4020 0.765734
593 7461 0.0954853
9305 3513 0.387495
12613 8575 0.220047
13079 16926 0.393275
11410 16605 0.485831
7932 2165 0.109558
19836 8337 0.18707
13995 2019 0.723584
2081 9557 0.0027983
19687 4101 0.883612
6028 1126 0.0208233
11006 8652 0.569276
3748 2125 0.337022
11750 1651 0.92926
2690 10891 0.0104814
9040 4419 0.393924
14379 8310 0.661208
1470 9970 0.639015
8787 3957 0.153261
13511 3898 0.61787
18326 5025 0.139672
14187 17773 0.974661
3152 1977 0.260259
771 12183 0.147493
19327 4740 0.274819
15842 14397 0.547666
16501 8181 0.423715
758 17421 0.158951
13254 9237 0.897796
2586 10899 0.233242
7869 9941 0.186647
5057 12214 0.975593
9463 7368 0.601476
1701 8311 0.654748
2923 6329 0.337553
6931 6788 0.697546
5958 10286 0.238277
8577 11690 0.786584
11580 7950 0.888523
4289 6265 0.659245
13683 9401 0.465466
7981 4342 0.382739
6582 6279 0.567687
10660 18331 0.190118
3181 816 0.901978
4103 16104 0.559142
849 12818 0.945219
14478 1047 0.946605
9578 18423 0.50487
9266 12399 0.899995
19065 16071 0.0566609
6128 11106 0.592996
14544 8092 0.834978
13382 7925 0.470219
7921 10416 0.369448
7371 11373 0.0990017
13651 3113 0.148416
1115 3417 0.405902
9668 12116 0.611806
16751 18498 0.257408
3252 4328 0.495151
4712 946 0.755027
8066 12413 0.0332594
1359 11136 0.430855
1925 10697 0.333826
19837 3690 0.461401
17877 6069 0.711983
1653 7184 0.121314
15584 5822 0.156147
10175 9008 0.27828
13498 8744 0.172222
3919 832 0.245021
6243 3888 0.882716
10441 15489 0.553437
12517 8890 0.0464554
2615 6589 0.312802
9278 19437 0.79557
7870 10495 0.706326
5006 2269 0.914172
5346 3053 0.791207
12166 7256 0.025268
3645 1018 0.544224
16628 4590 0.354327
15489 18808 0.521744
9270 2567 0.0324248
9124 2080 0.382896
1692 8015 0.109068
8567 9621 0.699946
2817 2604 0.673737
12346 18402 0.328287
9021 4440 0.40879
6133 6275 0.112059
19233 1581 0.239058
7015 7007 0.284107
7318 15920 0.851423
1977 4451 0.862512
6460 5250 0.86624
10335 5261 0.595965
9330 17916 0.323849
9158 8102 0.990911
14418 9038 0.197814
12695 6914 0.760811
13364 11834 0.286899
19064 2857 0.148951
14561 17377 0.390108
11276 18289 0.23587
4749 10323 0.505359
865 8188 0.494916
3545 12989 0.41658
244 1536 0.8585
4268 5156 0.348337
730 2257 0.587652
8503 14959 0.488973
3926 19160 0.415475
15628 19540 0.154022
14293 2827 0.295978
5684 18061 0.649758
17634 12307 0.28936
15113 11550 0.069306
1762 18257 0.713719
3251 11017 0.427043
17541 3543 0.378515
545 2118 0.365461
3012 7371 0.0786841
6509 1984 0.0848226
9322 9031 0.22023
8232 4111 0.0578181
3983 5340 0.225984
946 10621 0.255887
699 16490 0.37692
10806 18072 0.114612
1172 11729 0.0052177
10507 1800 0.887618
15244 8689 0.460705
2412 7022 0.476336
1437 74 0.634028
6804 4392 0.745865
11836 2736 0.502282
1358 680 0.45125
3997 8899 0.816982
11204 19297 0.276671
19321 928 0.724655
7840 9854 0.185293
8397 2181 0.189
8232 7681 0.506307
185 3060 0.339373
284 19409 0.447805
3130 13700 0.686218
8703 95 0.366222
8884 1997 0.610397
378 458 0.436565
10502 16290 0.977127
9349 10937 0.126635
1228 7398 0.335992
13530 8861 0.966604
8232 3049 0.0326563
949 10622 0.235
12541 17587 0.861707
8677 18034 0.98102
3748 17930 0.377158
1903 4107 0.0923343
15386 17516 0.678807
6501 10830 0.716567
19869 11826 0.272663
4671 4188 0.325454
6993 2365 0.633105
12291 11937 0.535783
10244 3785 0.939205
17338 5540 0.499473
16441 2530 0.203084
8043 1587 0.671793
9861 2791 0.103229
18458 11586 0.324353
1592 19011 0.668489
1669 7683 0.733587
1481 8285 0.159506
13341 3376 0.165338
11764 3602 0.768185
1993 18568 0.414654
5729 16850 0.871418
14482 4678 0.324125
18509 19886 0.420445
14218 14146 0.949157
13339 4666 0.00241209
11913 10966 0.704637
1651 1707 0.488239
967 747 0.509419
6301 9669 0.45809
2458 1114 0.675115
1997 19342 0.343278
7963 19803 0.985101
10267 3392 0.727402
4474 2874 0.929136
2930 3163 0.408217
9035 11700 0.301789
8448 9143 0.735175
6165 11789 0.244547
18689 5012 0.514338
2080 5335 0.538924
4527 9666 0.905286
1890 11008 0.96617
5427 4458 0.429865
1388 180 0.0124566
9941 18735 0.542528
14269 6621 0.894037
388 4120 0.81279
10140 9552 0.724334
2321 18058 0.638765
7776 11301 0.447662
15310 12538 0.626326
8287 19394 0.423483
16684 7741 0.395956
6257 12363 0.000341152
11176 8456 0.973493
605 9634 0.887743
4892 11419 0.580249
9798 15568 0.606995
7986 8815 0.292326
5863 10929 0.152682
1725 11841 0.697546
14074 13573 0.848276
175 3251 0.939917
19356 9188 0.178659
17758 1329 0.410321
8870 19268 0.598639
4018 11119 0.958946
11671 3070 0.789273
4043 11354 0.262289
6847 6692 0.312981
3852 17174 0.719196
4948 6342 0.603287
8654 4046 0.595292
16696 19697 0.169229
4382 3502 0.0391479
7089 2435 0.484433
12286 7709 0.771051
11396 7640 0.549319
18948 4843 0.430312
10547 12026 0.556943
10751 6772 0.850444
5634 19364 0.833764
2101 13427 0.353086
6234 5252 0.442527
1754 456 0.717266
8391 18747 0.661034
16568 1541 0.221613
17110 86 0.386011
10492 17125 0.689805
2076 4279 0.0531069
8089 9286 0.157675
6964 6164 0.487209
9804 8150 0.0326058
18584 7033 0.0126075
11070 3975 0.433661
1751 11955 0.707607
6549 11352 0.955542
5867 7402 0.0792283
3723 17783 0.194178
6265 14151 0.99627
10936 5691 0.69198
4601 6872 0.264878
694 2651 0.661984
1944 16000 0.410454
19481 9140 0.38166
3352 5733 0.609276
7499 17046 0.983598
998 4534 0.454755
5193 18195 0.608332
4838 11292 0.620482
4916 843 0.812222
17473 6291 0.376282
18455 1262 0.420643
7519 12599 0.780858
11071 13356 0.109068
6047 1362 0.180394
5342 1624 0.305056
3194 2324 0.429294
10030 17234 0.659312
10572 18164 0.389361
2137 1805 0.572727
4695 12885 0.525556
10296 1777 0.0431402
8574 14725 0.54064
209 3563 0.379846
18394 11520 0.646201
1804 15037 0.748041
18291 4001 0.834982
15419 12967 0.527232
12715 11794 0.98022
6635 9627 0.120494
4173 10854 0.10952
1408 10639 0.0884384
11740 17728 0.680778
2002 7623 0.134722
9212 7745 0.983281
5443 11048 0.057414
8652 882 0.741112
267 12237 0.696948
6721 5466 0.729711
506 19860 0.22697
18709 11028 0.351536
19380 12241 0.0220961
675 12207 0.925028
12744 13573 0.168463
16525 6060 0.872703
18722 7548 0.323074
3965 1061 0.81265
12750 1765 0.247532
1817 10980 0.100951
4186 9152 0.895583
8713 11495 0.265218
222 1336 0.665969
12462 11825 0.98962
12229 18743 0.170794
694 8892 0.385821
5655 18329 0.971484
10902 12564 0.326937
15204 5032 0.223912
9440 6628 0.459991
18745 12873 0.500783
19979 9524 0.576095
4607 8707 0.894123
8147 3889 0.535119
3557 14953 0.943116
14868 4138 0.474911
331 5027 0.497298
9591 7585 0.929511
15151 9993 0.418178
18681 15608 0.256864
17530 13169 0.568862
18096 10596 0.337147
11909 5799 0.865518
7482 11375 0.769299
8914 9738 0.998212
5933 12564 0.449608
7084 1862 0.268544
14220 11112 0.351016
5286 4752 0.482144
5805 14212 0.988733
7429 16351 0.657578
18771 219 0.842559
11667 9600 0.856461
8127 14042 0.26104
1014 1284 0.221613
11573 205 0.017649
8064 2651 0.46839
18664 8079 0.0526778
9204 7420 0.810995
10926 8160 0.741112
14226 15819 0.326138
15428 5151 0.879897
336 5932 0.206122
14383 3217 0.132447
8808 3305 0.488978
6236 3487 0.701508
9825 19757 0.211849
4539 6159 0.183107
4871 8649 0.10431
579 5865 0.828221
11747 3873 0.0148401
765 14445 0.9789
3027 16011 0.533765
785 12723 0.311635
3465 9269 0.357283
1346 12789 0.112264
18819 1035 0.660047
4595 1827 0.0556295
11301 5928 0.63514
11001 18145 0.32562
6021 9349 0.621644
1714 5170 0.422931
15379 8225 0.0715176
12709 11861 0.385026
15888 10934 0.180152
6794 16778 0.801677
14841 6427 0.177029
1177 2419 0.641305
1440 5349 0.939992
5086 9392 0.629822
8386 9579 0.559089
2428 7835 0.0430122
18787 1227 0.500687
12618 123 0.24994
3183 13602 0.762119
18199 8932 0.371512
9863 10049 0.366606
6293 2893 0.0796218
643 2741 0.491318
9065 2148 0.227124
5801 12138 0.325643
1829 13652 0.24929
11804 6402 0.776911
15688 17625 0.0759241
6985 15833 0.507535
10431 11700 0.20879
9499 10251 0.0688842
6156 12198 0.918888
11553 13239 0.630268
8048 1726 0.810889
13398 4108 0.205289
8542 14290 0.94955
16028 12570 0.832983
1688 9111 0.358725
16381 725 0.293401
8297 5338 0.464269
5932 14763 0.576729
9838 6470 0.649906
11403 6768 0.396626
1372 3737 0.492117
1251 7025 0.12528
8920 8707 0.339655
2551 5579 0.491717
15860 2792 0.778224
6334 296 0.0928334
8342 2661 0.388612
2364 18780 0.975518
18317 4819 0.264304
1659 4666 0.00109946
11554 1646 0.185827
1890 15836 0.314422
7633 8552 0.1467
9266 6738 0.219107
12476 4575 0.947802
12612 9096 0.859351
1985 5532 0.788985
13552 12556 0.90581
15289 9914 0.611117
10280 1995 0.749702
12382 6176 0.505359
3327 11398 0.299193
10443 4343 0.687168
3840 409 0.541648
8138 13276 0.239913
12747 2159 0.813977
11830 7465 0.493099
9980 9172 0.0359101
10685 8992 0.0888816
8180 3995 0.100998
10944 8502 0.395399
18502 2092 0.32028
4662 2259 0.629509
4934 2503 0.873011
5591 10556 0.592468
19924 2635 0.399851
4290 14660 0.572129
5863 11445 0.475751
19009 4931 0.424571
4943 13351 0.0500056
19644 14989 0.532997
7009 12561 0.869726
440 13558 0.260354
12297 4988 0.815391
11836 363 0.502349
5648 5839 0.481506
7795 5111 0.870043
14404 687 0.902383
9102 3694 0.383667
1641 12244 0.448494
3572 11166 0.275515
16460 13887 0.140477
10865 3387 0.0956681
9280 1451 0.51402
18967 10307 0.149474
13485 12033 0.326937
12407 3181 0.865813
3734 16832 0.236433
6041 1126 0.26354
14109 4555 0.587512
14859 17108 0.00558726
19686 279 0.605923
12313 11297 0.839792
13364 14740 0.791402
5505 19881 0.669377
8432 7808 0.334131
6552 1880 0.298055
1307 3339 0.957505
11664 3126 0.0177319
4408 9350 0.268585
5513 8643 0.422328
9935 387 0.372833
8458 17871 0.533532
10685 13356 0.573891
7816 8444 0.0883943
6006 11781 0.211241
19435 7616 0.99986
12555 1492 0.57399
14089 4300 0.734225
2590 15394 0.31725
10200 7429 0.129263
1281 12991 0.784447
5864 17818 0.468538
1129 3921 0.477608
11526 752 0.684223
7437 2262 0.548078
18719 11465 0.600374
4654 15559 0.923167
4783 2680 0.671036
2454 5691 0.736671
8704 2741 0.0531729
6205 5116 0.250006
9071 16520 0.188313
8059 19130 0.0952243
3549 16254 0.320326
11629 7614 0.820136
13041 11189 0.280942
103 6505 0.415469
2809 3155 0.917202
4596 17107 0.927912
16424 12092 0.690972
14484 5354 0.44336
4631 16644 0.521628
6461 4141 0.0161103
9382 16047 0.342596
14321 6911 0.216435
19727 12427 0.330792
12367 14713 0.415469
12971 12193 0.521403
3766 3190 0.63834
9800 18352 0.984442
2104 10604 0.643712
10455 13122 0.651377
17599 2045 0.683902
2866 10027 0.0449431
7290 7380 0.697462
7980 11285 0.85332
6700 10490 0.766932
5225 2441 0.626142
10052 3097 0.965668
18411 11120 0.506135
1670 18 0.495593
12115 575 0.701579
6558 14188 0.590754
7840 11547 0.243572
17176 2607 0.21871
16363 10629 0.974016
1453 9067 0.404379
1976 16178 0.838674
1566 12331 0.908342
16942 4241 0.0261708
18328 3730 0.159676
4749 2752 0.745387
535 15216 0.808374
11526 7139 0.206053
9637 1567 0.123707
6205 11616 0.895343
7492 6537 0.936673
6747 16511 0.33284
6258 4502 0.00938392
14214 8242 0.636521
10487 1473 0.230606
18752 11577 0.911123
8085 11932 0.849093
10888 15103 0.628356
19541 8909 0.737592
13921 3958 0.804292
727 10900 0.767684
8168 17494 0.992453
7941 5110 0.722517
3111 8921 0.533357
8680 8205 0.0167831
12212 6058 0.974361
9471 16569 0.533017
18184 1854 0.349978
328 13779 0.160316
14827 986 0.795571
2980 5657 0.305251
7329 3539 0.885327
5433 14255 0.451218
11640 4071 0.138504
7136 7599 0.453684
11815 7785 0.0786973
4047 17603 0.412196
3236 9641 0.755991
8349 13117 0.394698
17795 7675 0.569113
16169 496 0.729593
14810 9623 0.212837
2961 8278 0.751671
11717 8813 0.80378
17111 11620 0.170426
11757 11822 0.868453
17894 8898 0.336983
3561 686 0.957104
6065 6075 0.389563
7956 3212 0.669486
9163 7181 0.342176
4895 14792 0.453129
8527 11657 0.146032
679 10121 0.352525
9011 6956 0.933323
11233 19309 0.532806
3320 3126 0.585563
16777 3628 0.967223
7456 18322 0.786841
1817 10789 0.305479
70 5781 0.0501269
7081 2934 0.175407
5564 7173 0.553049
9098 14567 0.1978
13320 7149 0.933452
93 4952 0.154669
6857 2932 0.0869226
1712 4727 0.652861
15301 5471 0.9793
9612 7160 0.440032
8524 6677 0.602759
3698 693 0.2459
16806 6155 0.788492
2279 8362 0.835334
8081 1129 0.759438
7020 3738 0.813391
6262 6543 0.591424
9470 12190 0.628226
9310 6385 0.615161
1028 11613 0.852014
9387 1272 0.28074
3873 14361 0.730297
2734 1410 0.410335
3028 1304 0.409247
11696 5240 0.726537
17288 454 0.0234427
9447 1251 0.236685
1581 4234 0.565417
2659 11144 0.218747
6251 13379 0.452994
5909 4569 0.625506
17017 12575 0.0976752
7215 11640 0.413712
1129 11234 0.589309
13645 6508 0.39417
8726 5749 0.0582117
4487 13610 0.788697
1548 6516 0.165759
3193 4891 0.340719
4177 6641 0.96617
19541 2018 0.899944
4457 4949 0.214475
18081 658 0.639514
1143 16125 0.951349
14307 4614 0.577287
14479 18523 0.660306
2176 1393 0.668096
14898 10963 0.977988
5380 12873 0.566905
3343 2014 0.147338
850 12436 0.382616
18235 6761 0.787243
6317 4090 0.377069
5712 3387 0.588317
563 11074 0.112919
2134 3392 0.405322
3549 12531 0.744303
1198 14858 0.623913
6151 5620 0.396545
3454 3627 0.0208288
19018 3346 0.145307
13088 2356 0.987007
18858 11880 0.594679
14908 16738 0.264142
9312 13726 0.153765
979 10511 0.618136
11383 19443 0.353832
16294 8849 0.881137
1762 1179 0.329121
12176 3893 0.922462
16139 2013 0.470585
7116 7828 0.150684
6014 4333 0.701162
16050 13587 0.32133
11734 16006 0.631176
14969 6540 0.0979422
12123 9876 0.407064
19409 6429 0.515864
16935 9656 0.331861
6393 12244 0.892044
6945 10675 0.423798
7324 19344 0.68421
9381 8003 0.601348
458 2733 0.989262
2451 12960 0.534993
7564 3965 0.699669
7696 13102 0.671275
7910 4280 0.0778229
4622 9204 0.0484153
3710 8130 0.616843
7504 11352 0.484254
6921 3581 0.806767
5331 16779 0.170095
10477 5953 0.809332
12830 1804 0.49392
13344 9085 0.867372
12169 10180 0.252474
19634 1260 0.897922
14049 540 0.798165
8461 7194 0.973881
7329 12304 0.597616
4012 4842 0.718298
997 16716 0.473774
19199 2482 0.0305431
10147 18050 0.169491
4017 15981 0.444302
6295 6450 0.163898
14292 18304 0.353189
3492 3497 0.592944
19475 388 0.441385
10117 10557 0.443727
10191 10410 0.887415
16253 10654 0.443735
12026 14375 0.0408089
11376 11811 0.714451
4490 10046 0.0338147
4612 15966 0.273741
12444 8387 0.899408
9960 5767 0.188533
3959 16850 0.658751
10785 16365 0.941727
16113 10833 0.402747
15175 8493 0.287503
2319 6632 0.653603
19290 12696 0.798797
10942 19249 0.101155
11147 17286 0.708205
10780 5189 0.746649
12530 1109 0.083843
6588 5954 0.110563
4034 938 0.215723
8152 4578 0.492577
8393 9885 0.969042
1561 7831 0.767446
12145 16392 0.788739
11198 4768 0.469359
16016 11750 0.322221
185 11260 0.352462
1571 2962 0.500856
12127 2852 0.414142
131 10912 0.398173
4106 3559 0.39409
13316 11056 0.376256
4981 12102 0.135856
7551 6434 0.441812
10266 3311 0.200805
14753 660 0.825521
14400 2405 0.312265
4691 1274 0.739969
19516 3460 0.820702
1965 8713 0.916553
3124 3285 0.841248
6160 3837 0.401403
13558 12127 0.115652
6742 9690 0.470843
14866 433 0.503723
1853 4633 0.0933819
13972 13915 0.329161
6192 5654 0.719551
12742 12856 0.17943
4320 5260 0.858559
6847 8593 0.96611
10987 16521 0.71954
10168 10649 0.834413
2868 8692 0.0523805
9700 3120 0.496388
2206 6560 0.49935
15302 4535 0.397886
874 15149 0.675651
7256 11102 0.977272
12298 9601 0.919376
18326 13981 0.244468
694 9832 0.735919
8046 3773 0.201931
12246 16039 0.33173
922 7009 0.408896
6322 2591 0.165564
8715 12745 0.109207
8006 10265 0.750609
10313 18873 0.394391
5972 9976 0.154553
6636 3436 0.233396
8892 8899 0.290646
16789 11481 0.227593
10079 11770 0.299217
12351 421 0.546014
7556 2006 0.993196
8454 9851 0.632785
9745 15157 0.356182
6989 17640 0.855819
14302 4858 0.479975
7472 1683 0.687096
9534 6805 0.260291
14371 7762 0.985362
8295 15517 0.0720307
11261 10342 0.292014
18062 10371 0.170567
15169 3629 0.213029
4213 136 0.338151
19761 1763 0.453734
16715 4912 0.952467
16390 13577 0.176491
17300 8458 0.123961
10419 2884 0.528169
9516 8550 0.713282
363 11677 0.318426
12076 256 0.73018
3384 3980 0.187534
10273 6640 0.803417
15559 18362 0.986011
4399 15592 0.746649
12819 7383 0.436826
4751 3529 0.00861752
9683 1722 0.121386
434 9948 0.536453
1032 2014 0.904837
660 1361 0.826751
13387 13618 0.352846
18198 3114 0.0474422
11840 4362 0.701526
11071 9029 0.514964
8965 11329 0.783767
6355 6183 0.208526
15563 15574 0.702532
4834 15560 0.558046
12381 8447 0.336797
997 16406 0.980871
18242 17987 0.806142
13500 14263 0.204546
13138 13 0.927737
1803 17624 0.219738
12860 9641 0.0663949
4331 15388 0.482019
6105 12344 0.604137
16763 9576 0.0296574
128 5172 0.379842
2405 19156 0.514808
1927 11991 0.329636
1959 11294 0.879593
2626 3966 0.982578
5343 17826 0.0662617
8215 9451 0.0214287
13660 15751 0.460692
4124 19373 0.847966
16185 951 0.105743
12488 5453 0.267359
5187 19306 0.422462
5487 16580 0.54005
5608 10218 0.0824466
2197 10837 0.355773
11128 6909 0.659436
3186 15275 0.604137
6368 5732 0.0937126
7481 14441 0.231348
6735 7168 0.295258
19420 9724 0.244562
1109 6109 0.372407
2604 1377 0.570579
8853 1296 0.369595
4061 12347 0.321811
5976 3997 0.534219
7624 19632 0.335772
7551 3227 0.283701
5739 396 0.431787
16023 9785 0.696357
18802 14348 0.415459
7506 3822 0.312305
6410 6071 0.69771
9098 15911 0.76472
6400 184 0.0677665
13996 2137 0.959874
5100 4613 0.839715
13448 1675 0.206516
1563 14722 0.362708
8790 1974 0.950668
3231 16242 0.994471
19210 4160 0.0682875
2992 4271 0.534528
19908 1921 0.357404
10585 9645 0.97344
3098 12491 0.0223998
5033 12894 0.856235
16487 9537 0.233525
15966 11115 0.621478
3472 52 0.81464
19750 5829 0.827501
1258 16282 0.495803
10919 2887 0.11976
6782 5291 0.277451
4067 5812 0.0079802
496 16287 0.781116
18406 12354 0.962974
2536 3174 0.600919
2760 16357 0.0742968
165 3476 0.25572
6287 16975 0.725095
3600 15371 0.691447
5121 4066 0.322792
8470 2073 0.907567
14404 4700 0.875131
7551 8462 0.457038
8593 12322 0.506882
9185 10868 0.947379
13717 19763 0.761459
12971 3586 0.782331
14650 5232 0.612709
11669 7905 0.659915
16591 1940 0.510042
6170 1756 0.77512
8312 12369 0.324917
4506 5245 0.48094
6210 9963 0.0952679
5206 807 0.0615122
3776 397 0.533811
4300 6616 0.739895
16094 7182 0.209642
7015 7973 0.0844744
19912 7303 0.296616
8141 758 0.254759
3551 9791 0.0098834
1779 17203 0.388522
2393 11619 0.0117644
14022 4198 0.00938392
5611 7831 0.218096
1493 11020 0.787778
17009 8650 0.904019
15362 9181 0.955622
11473 615 0.86197
13199 2487 0.821097
7464 19943 0.509298
897 11332 0.041076
17788 15774 0.460705
17877 6419 0.234391
6878 332 0.654148
17466 13270 0.686218
6220 3315 0.977113
2040 16595 0.926065
19194 16572 0.331985
6352 12660 0.742348
16698 14674 0.730386
13853 12786 0.0954853
6494 18462 0.309944
17131 15123 0.731283
2443 8959 0.0880298
6507 2852 0.55852
1025 488 0.192696
19039 1985 0.623553
7746 7516 0.0989229
9746 12728 0.390728
8577 10674 0.287823
10571 7876 0.301682
12751 7181 0.789941
11445 14833 0.306384
1735 3759 0.000229883
886 13183 0.344634
19432 4345 0.420697
9509 12602 0.887627
9122 2203 0.4371
2636 7232 0.30393
15136 7238 0.876333
16569 19074 0.280233
11835 6714 0.514021
15657 383 0.0715715
19645 9461 0.974072
5058 10264 0.703213
18273 17514 0.540973
9516 11916 0.494597
1799 2158 0.14318
4965 18933 0.44746
10887 6304 0.843645
13531 11718 0.743928
10456 823 0.235009
2768 9360 0.891918
4920 17027 0.985871
15074 18144 0.80599
10951 12550 0.0548732
10408 13676 0.608332
17489 12448 0.964689
12740 19410 0.281594
11428 14902 0.00142548
7922 2837 0.905872
3218 3081 0.329756
6132 11821 0.112565
8039 13778 0.088308
8787 5906 0.842326
11881 7557 0.235841
7130 8188 0.738425
11480 5752 0.851409
14290 2346 0.906072
18315 4726 0.830937
6326 4693 0.669749
9851 8008 0.396797
9320 10724 0.712923
17850 8435 0.331644
17668 336 0.91491
17545 4021 0.369193
13709 15546 0.157868
15639 3283 0.0501893
12476 8595 0.939533
16476 16796 0.218607
10443 11823 0.0158386
1204 16777 0.828539
942 7951 0.0826951
3428 7306 0.770834
8793 7609 0.787818
2900 15267 0.386987
14045 4296 0.488464
13500 14090 0.0833335
4395 10904 0.899508
10305 14835 0.328991
6672 6439 0.322817
18919 442 0.788504
6662 9371 0.379469
13924 7261 0.797131
10245 4086 0.125738
1817 7533 0.307374
8516 10926 0.549174
266 18661 0.433585
6400 4940 0.491789
1601 7456 0.385893
3299 9964 0.803782
2135 3182 0.245894
4383 1146 0.706388
5312 4447 0.690303
12 1547 0.230751
17655 6251 0.203407
11364 17917 0.94202
17800 6464 0.909061
7137 8441 0.123116
18933 2861 0.705754
3505 4391 0.288266
16780 12072 0.92651
2852 6975 0.602605
7024 18649 0.644009
10009 4986 0.103315
13709 8969 0.711973
1938 7725 0.293389
14739 9941 0.821698
2474 208 0.887864
5052 4102 0.610706
9581 7134 0.304026
2506 10007 0.0150017
15344 4780 0.192538
18913 17874 0.663445
1654 12718 0.513273
6311 9365 0.66281
14386 17531 0.114803
5236 17587 0.879347
10138 10184 0.0693973
13378 15630 0.602795
7636 17558 0.619137
15818 880 0.692959
4916 9041 0.48032
13687 2829 0.314515
4985 2789 0.617376
12933 12600 0.334131
17154 7236 0.208121
696 10007 0.719331
11022 10602 0.380875
9546 12592 0.684099
15355 18745 0.2885
7370 2354 0.475568
16765 1193 0.43837
4796 6949 0.963802
8050 965 0.153854
3737 6659 0.271015
17992 12241 0.763696
9798 14560 0.788929
1695 5100 0.266061
5608 12531 0.624311
4695 7676 0.954798
12370 5669 0.935506
2050 1872 0.802543
4189 12800 0.145904
11605 15694 0.144408
12889 1090 0.591138
10793 11807 0.0398077
11158 10815 0.90682
16188 9861 0.0267158
12330 3963 0.627278
4690 5871 0.774309
17648 289 0.114733
5237 7739 0.22307
242 5396 0.160007
6566 12289 0.211239
7494 7435 0.0881294
18393 2552 0.292956
10051 270 0.115255
4542 12104 0.0379446
4810 1153 0.379181
15125 7682 0.109362
14309 13715 0.19942
18489 6599 0.574154
6692 2519 0.897687
5549 10562 0.73418
19200 2370 0.246932
17824 12374 0.750179
12168 1776 0.850821
8456 2298 0.488162
3465 10340 0.117958
19856 10136 0.623108
6692 17808 0.787517
11185 7160 0.208914
1026 9217 0.14578
15815 7048 0.970325
10005 1918 0.23877
16207 17055 0.431736
18244 10260 0.847429
18051 8931 0.170786
4633 6568 0.628356
17817 8403 0.283953
6758 15775 0.670466
5069 9933 0.399932
3846 6834 0.689612
11137 7124 0.0350713
3571 6900 0.702911
12479 19307 0.99939
10669 6599 0.442294
1891 5515 0.832908
15797 17812 0.549349
1315 17948 0.493367
6925 11510 0.574809
8628 1905 0.868775
10682 2498 0.180464
7007 2985 0.245438
4599 5952 0.308317
7437 13950 0.773034
895 8344 0.430425
9056 6859 0.660962
8222 4057 0.877886
7045 13922 0.708385
6865 16501 0.33996
735 10617 0.610696
14241 5343 0.540628
12099 227 0.375742
11625 12566 0.073847
6225 3616 0.999697
10926 13377 0.609233
9909 16220 0.86136
13583 1064 0.156147
975 2245 0.90402
17933 12344 0.0799419
17454 4701 0.792575
3910 18085 0.202259
3504 413 0.26412
7879 12008 0.881788
3913 10745 0.114388
19294 7647 0.427835
10337 9593 0.820572
3331 15578 0.273065
6991 1785 0.0398415
4105 6712 0.0818967
10565 6834 0.775145
4889 2419 0.335992
83 17940 0.0763349
13906 17517 0.979938
4057 8879 0.675706
10626 10639 0.354807
8407 6483 0.947166
10158 1493 0.462605
9498 2976 0.0744282
10841 9263 0.12643
3042 14674 0.596401
8894 7656 0.0622779
1902 1163 0.325193
13196 14671 0.866452
12216 2175 0.322116
1102 17723 0.0610581
8245 1983 0.986902
6688 17684 0.471737
1937 13655 0.198217
9234 4553 0.351621
5024 6129 0.532189
219 3814 0.474039
11396 12080 0.438241
659 7566 0.164525
3850 9297 0.458717
7770 15722 0.484139
3564 3915 0.928669
7755 18458 0.965841
8957 65 0.776087
11758 16749 0.794905
5296 1857 0.876318
16867 236 0.477486
9076 18452 0.363632
2069 3117 0.222902
2248 10398 0.826486
12192 13955 0.53723
7792 819 0.68578
14621 3291 0.131434
11064 10358 0.497867
11956 19601 0.154156
19187 1966 0.895245
4459 286 0.00582467
5605 9004 0.0684054
12647 8470 0.295856
3390 578 0.662496
17784 15331 0.389136
5279 7414 0.9664
12676 10457 0.130452
6488 43 0.0477487
8840 3878 0.111284
11047 310 0.88225
4203 9370 0.138651
8666 1448 0.64654
9240 16057 0.889961
8571 4216 0.475899
11846 8159 0.678662
2399 16244 0.657215
832 2500 0.733289
19574 14094 0.627726
991 12803 0.635554
5258 8811 0.754174
11341 821 0.285439
15565 17430 0.243727
6255 7805 0.381088
13933 3178 0.0659183
8921 9498 0.376171
3737 12705 0.472831
14106 9298 0.51698
5117 19012 0.472134
18563 9380 0.612218
5117 14438 0.914605
14710 1292 0.646577
1096 10589 0.160386
10549 15112 0.0209962
12261 2219 0.501551
9311 19024 0.335617
11471 19893 0.278716
13093 18013 0.568266
9920 12281 0.175407
8262 15961 0.12588
16289 18225 0.978184
8959 14943 0.940543
12435 6774 0.119576
1069 18834 0.441722
1835 12653 0.549427
10944 10787 0.818594
3183 17471 0.883556
6625 7825 0.0948709
2190 12839 0.639578
11533 15320 0.880395
16768 6718 0.3703
19157 17770 0.835947
16626 7702 0.227192
14512 12272 0.741094
19398 15904 0.740459
14696 7002 0.0959555
4450 13377 0.81561
12287 3715 0.732395
12683 8088 0.442067
15005 8457 0.0599811
4411 13786 0.357657
11750 185 0.69337
11149 19023 0.727513
6791 18521 0.523468
17927 4466 0.498858
540 10350 0.936907
274 19823 0.791207
8042 1617 0.757163
3050 15813 0.113299
15831 4186 0.554203
14225 11189 0.723393
2583 1225 0.515155
1101 5703 0.0409384
15293 921 0.625911
12308 10223 0.974128
18316 10464 0.117391
7305 4407 0.80621
13483 13242 0.187145
6779 5272 0.554423
5573 1124 0.0700558
7785 9410 0.478209
1616 7996 0.0624461
6914 12220 0.819905
3023 19073 0.87862
16633 9912 0.235356
11862 4439 0.280331
6919 3058 0.715999
6392 19895 0.476829
8625 90 0.905508
6710 18630 0.229974
19137 13577 0.0979841
6983 19623 0.199025
18444 8914 0.677222
14753 9305 0.610545
7458 18763 0.547574
16187 8938 0.325075
19914 6750 0.664736
7901 16621 0.608999
11861 10174 0.714495
1651 4213 0.273332
726 17406 0.500622
4426 16665 0.130334
2860 7314 0.981754
16408 869 0.997696
8452 1184 0.346669
16118 6345 0.932424
15788 11613 0.643815
3940 5413 0.551597
15706 18183 0.961198
7852 10154 0.391179
8873 2379 0.639734
146 11708 0.414287
7898 5839 0.929542
8929 6315 0.0174474
12394 8524 0.07594
2565 1289 0.149552
10929 5868 0.564138
6985 6802 0.851368
6526 8409 0.619754
174 14699 0.194003
14862 18721 0.147325
7023 7734 0.192191
10017 5705 0.802309
5608 15935 0.0164877
5448 15707 0.251699
15426 1791 0.528804
4769 1208 0.923538
18358 1519 0.418119
7298 11401 0.850155
6286 16872 0.579229
12217 4302 0.530204
15954 5421 0.622388
7432 9805 0.393134
1070 2304 0.694209
8974 6929 0.288035
9841 17094 0.743509
2062 12539 0.0330724
3370 15524 0.571904
4964 6897 0.644126
8219 9389 0.169624
1656 3449 0.0332545
8309 8282 0.017649
7164 12501 0.0457625
1868 7476 0.256451
7317 8988 0.641641
10892 6273 0.269827
2293 6216 0.856393
4520 10953 0.641688
10598 1139 0.469434
11958 5171 0.0796774
14174 354 0.562695
1679 14699 0.616659
14027 2246 0.759762
7544 8099 0.759822
7008 16719 0.0107313
4424 4567 0.563628
13601 10257 0.610429
10753 12885 0.173527
500 18802 0.675488
1284 10528 0.862581
11909 10019 0.644126
18058 2527 0.834901
9534 1955 0.280253
17886 2159 0.0780383
8397 6550 0.711697
8536 15803 0.0341945
916 7814 0.168296
874 2997 0.297505
9940 19365 0.469292
7825 3849 0.938959
5840 7128 0.539897
543 14752 0.272052
14189 8482 0.0992357
14395 6441 0.0426316
14386 10616 0.731874
11445 9039 0.683077
3204 7810 0.600798
10307 4260 0.127357
6557 10073 0.0930681
14712 2490 0.506016
9592 11420 0.433448
10530 4655 0.299217
19531 6143 0.732449
5369 789 0.766363
8878 5321 0.608109
15143 3049 0.4385
4481 19807 0.451712
10972 17202 0.511303
2227 9019 0.898453
1962 18053 0.380959
245 1319 0.429969
14538 14950 0.176781
2756 16128 0.949846
10587 17433 0.706504
16167 5076 0.952817
19907 9852 0.566969
648 9334 0.401646
9435 569 0.803131
5746 5553 0.915795
4397 3717 0.392352
13597 5140 0.295868
4906 14717 0.126019
10760 2698 0.823366
3420 11475 0.382422
12515 9047 0.52927
6995 2043 0.839129
8630 12402 0.164534
5606 2617 0.363328
1197 1932 0.556922
9508 19186 0.931027
15609 7429 0.850399
16300 13319 0.447794
9869 3711 0.87682
18469 1849 0.0662057
5488 4730 0.240939
6027 6704 0.619277
13989 6759 0.459621
2671 11003 0.282595
3172 6070 0.0588493
9162 8338 0.92583
13448 11481 0.399932
18093 9272 0.926761
12588 3124 0.907176
9839 17014 0.492977
12865 5366 0.276011
19456 10035 0.346778
10688 560 0.589491
3807 8120 0.0317493
1362 15554 0.654811
5190 157 0.0675437
19367 1006 0.334712
11414 3494 0.608858
6086 10623 0.0255038
3289 9037 0.283517
784 10751 0.762498
10441 11658 0.862143
6798 17294 0.419408
14981 1579 0.621478
1078 4464 0.995006
42 709 0.388158
7555 5195 0.88072
2705 15431 0.462605
15542 16535 0.594641
23 1943 0.200752
16271 17059 0.426474
7842 10929 0.554597
16676 12375 0.330427
5491 10817 0.417071
11340 9474 0.551747
10568 8625 0.14404
9781 9041 0.926758
4524 16838 0.0796398
5095 2364 0.742348
12053 5952 0.348306
6682 18352 0.56789
1780 2072 0.230608
10214 10784 0.141411
17515 14691 0.853115
8850 4846 0.737866
13148 8628 0.0966497
9776 3761 0.101275
11684 9400 0.65682
10873 8083 0.831622
5226 1014 0.0483254
13858 5955 0.56618
4600 18678 0.0437073
8584 4207 0.333448
19737 4096 0.276671
4366 3804 0.711937
15629 8596 0.109903
9732 7276 0.54387
10269 14574 0.591335
10093 3963 0.383
6608 14376 0.360942
157 14203 0.0842741
8646 12580 0.509019
16981 17461 0.972428
9950 15537 0.739905
6044 11696 0.798354
8930 15561 0.335471
6302 13795 0.423025
19845 12758 0.532189
5890 3253 0.133444
18704 362 0.824734
7777 2456 0.235345
3157 16840 0.363901
4047 3530 0.350032
2247 2910 0.342944
3866 6026 0.499141
9780 15805 0.649078
4114 7680 0.392885
4570 673 0.303295
10556 9932 0.727789
11587 14128 0.827185
13872 9438 0.887519
8899 15725 0.016603
11044 13116 0.575945
3698 15416 0.808624
3711 18309 0.938959
3073 16338 0.615559
25 12461 0.199768
11967 8709 0.168142
966 16948 0.375416
11887 9402 0.712278
3152 4005 0.698434
11662 14886 0.0126789
1759 13471 0.535131
7591 16883 0.741201
1122 6376 0.608791
16687 1285 0.498457
15354 12675 0.43424
3935 5265 0.810046
938 1120 0.733161
1287 13680 0.736891
18167 3978 0.158726
4159 15398 0.479055
17098 17272 0.446449
2650 5499 0.419278
881 2070 0.0458927
19284 2759 0.557705
6162 19454 0.105121
4524 15505 0.39552
13830 14276 0.186846
9976 8100 0.550878
1772 726 0.830726
10339 2639 0.860854
12726 16242 0.683471
19930 2964 0.792537
5721 8333 0.0925368
644 7836 0.183346
9279 3939 0.474813
17071 6382 0.230562
15967 11679 0.671357
11827 8710 0.424233
14651 4858 0.164433
2281 6729 0.301914
2740 9198 0.725064
2836 9306 0.54535
756 18770 0.458609
10337 6445 0.753314
2806 13764 0.311429
9273 11031 0.94564
381 11224 0.178231
8455 7695 0.810846
6015 6428 0.861448
5458 14675 0.25772
1695 9601 0.83497
1767 17126 0.735632
7166 9411 0.349141
12401 18269 0.300726
5733 11707 0.701701
5960 84 0.657798
9178 13555 0.866724
7785 1825 0.17699
5141 1489 0.39276
2527 1158 0.101152
5422 1396 0.583393
9755 14023 0.230395
3111 18250 0.342033
3574 8800 0.54447
13086 8942 0.909207
193 859 0.254198
2050 6961 0.715895
12233 9259 0.765767
1857 12878 0.195321
6238 9759 0.864572
17651 8299 0.334317
7917 9269 0.341261
3819 11141 0.675744
9568 16474 0.968563
7147 2603 0.22396
4718 11787 0.499143
6051 19245 0.549174
842 8208 0.876085
8023 7119 0.385848
17776 12583 0.880329
11262 14610 0.0833086
19873 5834 0.513595
19372 7470 0.356121
19246 5833 0.849481
19209 10630 0.356165
5216 6322 0.531882
10806 14492 0.35845
5022 3413 0.384846
9889 17747 0.173935
2312 5668 0.402354
11171 11117 0.6567
9508 3796 0.79884
12756 19606 0.938538
6298 14101 0.397987
10207 13029 0.5467
7387 2904 0.242986
6782 19269 0.252177
6967 894 0.154432
9332 7623 0.741904
11857 17284 0.125866
2941 15236 0.970048
7383 12189 0.436592
7416 6034 0.214893
2575 19312 0.498291
2170 8395 0.297291
4834 17159 0.899163
12596 2982 0.12843
8367 5284 0.941727
17966 7035 0.720588
14898 5540 0.0831619
9059 11885 0.912752
3168 5422 0.963981
9982 6043 0.689812
9279 13595 0.178693
5793 19329 0.672001
6753 16716 0.128438
11305 14699 0.342719
814 19300 0.189977
10566 2120 0.45945
19353 9667 0.486384
9906 2001 0.0407301
3122 2150 0.825842
4734 750 0.349319
613 11453 0.099241
6527 3536 0.511326
499 2275 0.881137
6879 7581 0.242002
6191 5111 0.142855
9544 3827 0.991369
1498 12641 0.857351
1488 8831 0.680517
17021 3506 0.366147
15625 4065 0.617989
6561 4073 0.662548
7130 14549 0.0455136
12253 14302 0.808214
5834 15440 0.227638
16239 9928 0.169307
17371 6123 0.524904
9460 401 0.671174
8694 12949 0.767275
17526 14743 0.510269
19037 1454 0.290789
19193 5489 0.725379
13065 9569 0.0223583
10937 9873 0.445009
3327 11702 0.00744116
1947 5207 0.133712
5208 13738 0.374663
3486 3473 0.661079
5401 11562 0.627267
1226 9643 0.410438
9619 4681 0.989161
8502 18775 0.0729409
820 12227 0.319902
14701 7326 0.221409
3129 12034 0.0291653
9213 13674 0.00373237
13033 10736 0.445402
1779 6835 0.70028
7790 436 0.732727
11160 8757 0.769777
362 3068 0.64908
5496 9233 0.164707
5565 14794 0.702133
6209 7711 0.80712
12623 15982 0.906647
11566 1431 0.843892
11422 18029 0.801519
13805 15628 0.530855
1810 2189 0.384461
11097 2472 0.0967608
2425 17888 0.164473
5149 3041 0.381595
6377 675 0.0588283
10607 14861 0.445053
6897 17468 0.797634
9734 12880 0.761805
596 7489 0.49085
14655 14078 0.673778
7501 17043 0.50523
10089 17846 0.82449
17977 18957 0.0466311
4726 8364 0.382764
10959 8496 0.632407
4671 5078 0.957977
17136 4725 0.160755
13720 4329 0.963467
17659 14891 0.711715
17938 9717 0.678692
4755 6776 0.839747
8830 5247 0.852869
10987 10300 0.330146
2360 19145 0.138251
12682 6192 0.36142
4168 4437 0.115205
4273 5889 0.974914
8923 19819 0.856276
15273 13502 0.125568
2550 10029 0.629733
10451 4854 0.509817
6003 12438 0.964944
11851 9279 0.673778
2069 11221 0.26435
1767 793 0.806459
6851 1759 0.759283
2469 4227 0.413375
9546 3123 0.895787
18274 10841 0.47876
12730 16166 0.828891
9219 8185 0.458001
17631 5151 0.931456
5883 15451 0.253382
8176 9046 0.160152
4643 15643 0.998155
18188 10243 0.650194
11500 14912 0.785042
15757 12151 0.442373
1542 6772 0.642635
2886 13456 0.797751
6388 11809 0.757157
6189 11926 0.514347
10795 962 0.328886
6836 2880 0.0320561
6388 17999 0.576095
19191 12574 0.83745
9189 7156 0.0735204
7753 14939 0.6457
14940 3678 0.189263
15667 15160 0.378112
19331 1155 0.242718
13522 10381 0.97097
19511 19090 0.983433
14383 3988 0.404002
2163 10735 0.281278
8800 6653 0.117858
4851 5249 0.773323
14837 6254 0.00593007
957 7264 0.889268
10853 18144 0.695131
12648 12252 0.25327
16436 10452 0.0210118
8396 6105 0.672178
4988 19778 0.29357
7051 16829 0.638504
3740 16596 0.579658
3376 11937 0.53023
5637 13375 0.738508
7450 11019 0.605132
5875 9005 0.71588
146 5102 0.685071
3236 5140 0.292641
16662 9256 0.849177
2672 3002 0.965841
12069 14063 0.322326
1803 10520 0.227673
5398 5723 0.54535
3921 8797 0.380094
6746 5124 0.0575129
8534 11804 0.978484
14765 10507 0.364306
3089 5568 0.977298
352 7677 0.297716
418 3437 0.296905
6767 10724 0.350557
17220 2579 0.707932
2179 4439 0.207345
6794 17081 0.687674
10493 10540 0.995192
5255 13600 0.385104
15206 12463 0.531432
6018 7044 0.785593
2062 19391 0.540023
794 14423 0.495443
14338 7507 0.0489258
16079 9906 0.000811569
6435 67 0.883275
18445 4281 0.936937
2174 2864 0.41961
11719 8440 0.23848
7834 12992 0.834573
6844 12686 0.941302
19486 12113 0.481854
19145 843 0.704352
15181 8000 0.367477
14799 10377 0.258845
9514 9143 0.972858
4871 11699 0.308086
9001 16300 0.345151
8677 15309 0.196699
8758 12645 0.75312
11766 203 0.0426731
8098 4004 0.273456
10790 15908 0.272663
14058 1141 0.257558
15511 11194 0.164473
17355 3138 0.402592
14765 2399 0.0798757
17272 3188 0.85586
13015 13383 0.197064
7486 13098 0.25873
9442 12170 0.53917
6868 1644 0.277676
10756 5442 0.694695
6883 10868 0.721066
15040 10601 0.814479
12863 3896 0.477664
8084 18391 0.867407
8323 10773 0.589246
10261 837 0.38794
5601 11789 0.21385
5873 13416 0.220047
11470 3919 0.560954
10006 5276 0.130506
11861 16785 0.841802
10844 7179 0.0425994
1654 7240 0.958946
1868 8589 0.331074
16119 15682 0.482123
8190 19985 0.264383
318 16530 0.698036
14661 16992 0.633236
9995 19145 0.0109591
6234 1321 0.205645
18980 6380 0.438574
4900 8204 0.076665
8223 7953 0.939615
17238 12738 0.103024
15666 14279 0.71347
679 1382 0.918894
8401 10711 0.491306
9772 2570 0.0678393
9372 3184 0.192408
8693 5067 0.104657
3675 3584 0.123812
2370 526 0.556579
12507 4424 0.0353453
6937 11318 0.322629
15471 10629 0.969079
2782 899 0.689252
10259 1258 0.457972
10149 15428 0.947802
8141 15656 0.205849
913 12523 0.830685
3232 16559 0.00059616
5156 12950 0.848402
11270 18349 0.527564
15407 3438 0.374193
19070 6236 0.686486
17029 8603 0.460183
14369 3406 0.641784
12043 8852 0.539004
16133 16012 0.117599
5504 1724 0.934361
62 1357 0.445484
13420 14036 0.0816094
3630 1778 0.951349
5315 7688 0.696009
11243 2484 0.0486538
13878 9175 0.250145
7989 902 0.0106901
6186 5588 0.719432
4492 1330 0.639438
850 333 0.707451
5084 8078 0.23544
17746 4032 0.868811
5061 4492 0.487913
12515 1415 0.720173
1578 16982 0.404753
2776 9705 0.248661
3482 4355 0.728177
7537 4359 0.510251
2441 9871 0.527417
11757 1990 0.632917
9093 8748 0.941963
4187 10468 0.771482
10099 2219 0.492392
5253 17079 0.215187
10090 9940 0.950215
16027 12990 0.206574
323 1838 0.369205
3398 3291 0.291195
3628 8501 0.0946813
5932 16078 0.162409
18447 14101 0.475007
12733 5617 0.491069
1213 8676 0.0287767
9450 9429 0.152377
16646 3191 0.685614
19863 2892 0.129066
2959 4245 0.868884
14303 10511 0.310893
10677 15395 0.0843442
10348 19865 0.149642
11323 7908 0.771357
15338 6692 0.304419
12763 15147 0.594664
1517 9359 0.469829
17562 18532 0.093296
10156 4916 0.435192
9640 9678 0.583796
9935 5993 0.0744022
1018 7421 0.962556
4575 10318 0.659245
634 8851 0.528267
516 4416 0.0927047
11644 18298 0.602547
3613 8492 0.353364
11913 6055 0.0129516
19024 14896 0.274213
1022 12684 0.346364
9652 11260 0.777624
4483 14381 0.873767
12047 4653 0.699839
16726 5789 0.904859
7302 8511 0.199461
15023 16915 0.239371
1674 9941 0.410117
5899 2725 0.483321
8626 13032 0.562002
301 13685 0.349138
11709 17815 0.0589241
15459 11768 0.965487
8107 11505 0.331797
6653 3233 0.966365
5660 1384 0.766475
940 11281 0.811373
9376 7038 0.692495
7348 5254 0.295723
6269 14955 0.375893
13179 1943 0.980001
2080 3755 0.533416
6916 2161 0.511407
4654 7902 0.417346
6942 11906 0.618146
5174 11215 0.45111
13486 2716 0.364911
10666 449 0.476983
4949 9261 0.917212
1026 14793 0.453694
16356 9568 0.702104
3153 10995 0.0814255
18129 10182 0.00932618
9649 10479 0.681589
3698 677 0.08277
3206 16948 0.792312
12398 6017 0.923149
12568 9206 0.153616
2733 1930 0.474392
8202 2207 0.183844
4533 9597 0.522727
11395 17078 0.664937
14881 19214 0.521731
2329 19956 0.865884
12843 16740 0.0181266
5563 10408 0.394486
3823 7599 0.07234
11910 725 0.585195
12573 5436 0.394052
9484 14467 0.502517
6355 11202 0.923096
6771 9034 0.922126
10139 3870 0.840794
10649 3039 0.217665
296 4762 0.371795
18042 10179 0.0699593
9491 2058 0.182933
1275 7002 0.768346
14535 530 0.381606
8443 19716 0.260549
12841 9660 0.926049
18520 7900 0.874803
4649 13218 0.199461
1546 4443 0.351314
861 3978 0.486287
14687 3988 0.990995
7838 9321 0.533933
10582 9828 0.301983
1453 6385 0.230671
5420 6622 0.374551
17656 11129 0.672908
14189 18096 0.337766
6757 11426 0.69597
13171 17204 0.00741872
6795 6688 0.590754
15436 4273 0.50978
17566 6992 0.0123064
14225 11983 0.487344
14790 4819 0.0782108
2733 5052 0.0937438
19113 10998 0.462639
6858 3046 0.774128
9924 828 0.18539
8031 8012 0.45986
15771 11942 0.805321
9789 3282 0.847095
372 2718 0.584946
8126 7905 0.926147
19489 9983 0.917365
5324 11188 0.537219
19694 13019 0.421311
2762 1381 0.76521
18337 13077 0.299259
11431 9826 0.71089
6314 8282 0.627907
6365 9319 0.356004
6478 6586 0.552119
1241 16180 0.0287734
5614 2220 0.71389
3130 822 0.628006
18298 2197 0.738116
5426 5091 0.676638
1969 3510 0.669794
4685 6677 0.803123
565 4944 0.101508
1140 1797 0.0784701
3012 11000 0.505893
6561 7924 0.712285
8285 15230 0.296784
4335 7978 0.96059
11355 9046 0.692314
8444 8586 0.845607
9254 16183 0.250456
5572 2854 0.785865
6975 5981 0.554545
8443 5225 0.555629
11460 3578 0.666455
6705 6961 0.565474
8553 3602 0.968477
12685 4573 0.294451
18966 9176 0.157262
19318 19044 0.156831
12323 7991 0.474063
401 8955 0.94633
14161 16276 0.178561
6686 15426 0.366839
5367 17176 0.105229
10496 19718 0.927846
11614 4011 0.562666
6453 8024 0.740564
19205 17591 0.748543
17490 1971 0.399851
8641 6442 0.0770675
7151 19105 0.25177
5709 6705 0.664777
636 4848 0.308293
2729 11840 0.966449
10029 10420 0.320767
9044 2148 0.602759
9602 4766 0.00666733
11270 11423 0.0347827
9097 1850 0.16868
3602 17424 0.664328
3245 19028 0.312802
7604 11203 0.96424
10699 17001 0.681949
5261 13562 0.550864
6160 2008 0.330999
5070 8116 0.626948
1442 2196 0.200683
244 14548 0.382669
3413 3597 0.947544
8584 9633 0.862702
6291 16617 0.230134
5755 1655 0.389867
5571 15149 0.532065
9758 11744 0.506918
18010 18898 0.432946
5600 5065 0.91075
9307 18246 0.246436
3365 3593 0.872709
1737 8730 0.224756
8655 14099 0.203679
8784 12619 0.781036
8763 15633 0.894073
2640 9583 0.830685
2728 11698 0.904671
1980 5625 0.118814
10640 12402 0.687465
9729 6799 0.360389
5574 5017 0.192408
6138 14720 0.723117
11253 12169 0.343278
19125 8789 0.316607
478 10765 0.553718
15939 11980 0.212328
7216 10938 0.230259
8717 12487 0.627857
4594 965 0.67415
8388 8236 0.801199
14797 19794 0.531081
1076 8821 0.838345
6745 12035 0.652377
6929 1248 0.705727
11243 7858 0.0132404
17839 4530 0.908429
19311 5575 0.813029
13825 12677 0.729103
6794 1722 0.0112256
16432 8741 0.0937114
13789 14303 0.187597
6141 6011 0.374437
9087 3975 0.371788
4422 6959 0.14503
13820 8224 0.342146
4051 5486 0.401725
157 12263 0.491406
16979 1917 0.22976
8969 13178 0.96171
9139 12671 0.884051
251 6093 0.549655
6765 5464 0.113117
14568 4702 0.990024
4315 11667 0.348665
7669 16723 0.538087
15599 7987 0.0991853
7350 6525 0.400401
6454 2413 0.148796
1570 8741 0.108064
15393 6729 0.718735
16341 1311 0.345399
4130 10531 0.465903
13076 16750 0.115165
13788 4741 0.933463
10445 3828 0.205353
2709 407 0.762451
10169 10918 0.939014
10260 18164 0.297758
17819 15889 0.510323
12532 18337 0.750963
8367 1540 0.845376
7159 2720 0.716153
12192 288 0.899699
10158 14992 0.521933
17460 13200 0.730502
15667 2938 0.0183094
12752 5856 0.443149
6624 131 0.920865
13389 13066 0.412855
3820 16463 0.642714
12020 18420 0.941205
1224 5288 0.974056
9697 19600 0.361663
3919 15746 0.548333
3862 7360 0.777104
6546 15920 0.611536
16894 1863 0.230855
3266 10648 0.750006
15700 12762 0.38919
8195 14682 0.221727
471 777 0.272152
14052 14526 0.67337
1439 12499 0.0218938
6156 3046 0.608534
13140 16684 0.019422
4790 3500 0.516592
12532 3691 0.998283
7806 2088 0.91491
12723 4320 0.0565054
11929 3677 0.251421
9497 14722 0.548133
5955 12852 0.455222
6683 10559 0.0594343
3819 7989 0.965962
7320 17331 0.513345
3799 19132 0.711895
4112 10789 0.984711
1453 1262 0.505479
14417 4294 0.525867
15109 14981 0.117551
10875 8937 0.0291634
5659 2696 0.387724
7723 14894 0.405947
12608 16459 0.984992
10400 9427 0.183918
9975 9370 0.36204
1972 704 0.210867
11288 9248 0.294732
15901 17861 0.0980267
1466 12708 0.710071
10941 6102 0.418205
10327 7988 0.355908
8995 16261 0.668409
11064 4206 0.707532
7947 6913 0.815902
15443 4910 0.22962
10332 8536 0.854567
10490 18361 0.476745
10270 17463 0.803815
2345 11631 0.431497
8404 12473 0.505359
13744 9509 0.181192
15317 10918 0.782404
12060 11005 0.357212
6718 10672 0.0695115
12546 3707 0.65455
8231 11823 0.950705
2287 4497 0.0891987
11979 7201 0.808497
6371 8754 0.807537
2806 6061 0.427277
4945 15204 0.632669
2587 2630 0.000930707
5308 3560 0.763887
1820 16081 0.256864
8225 6622 0.25944
6960 4771 0.013915
6135 1038 0.258409
2762 9896 0.978688
4598 16980 0.835346
12053 9936 0.467282
16826 10557 0.773791
7154 8277 0.865223
11500 130 0.330664
4219 8414 0.893768
3398 6812 0.380959
8544 15715 0.0716877
5537 10 0.569813
6737 11785 0.663842
1668 15976 0.0866327
11677 10787 0.213223
5256 4678 0.0657228
12136 16641 0.0137358
1139 7828 0.854567
7338 3954 0.304308
8669 10738 0.0566265
14153 12271 0.734944
6563 9560 0.633236
18785 10841 0.321523
16137 3259 0.732515
19569 3600 0.116072
9348 19401 0.248484
2397 7248 0.692025
11262 13505 0.242211
6546 9002 0.84831
8774 4728 0.894894
3021 15163 0.0720209
11736 7739 0.240293
18595 2363 0.10585
5394 6627 0.789847
5965 11414 0.674794
14222 18314 0.683782
16693 1144 0.146
10411 84 0.698952
12327 7061 0.0164875
4536 15244 0.253314
1499 5033 0.878509
18832 8062 0.892312
13288 16913 0.0419591
9348 2220 0.844815
2546 8207 0.632423
17494 6326 0.400113
19641 4829 0.205137
7703 11930 0.701566
868 1267 0.912625
525 13139 0.450138
8675 8683 0.683342
8285 4881 0.32466
1325 2861 0.908051
14699 4304 0.797442
9572 2899 0.727956
2253 13816 0.428994
14867 12824 0.602874
9987 6964 0.118199
3523 2416 0.152248
6621 4364 0.452544
4171 19602 0.399046
6840 2077 0.949157
13806 11564 0.391854
2506 16485 0.123707
12632 9736 0.00811605
832 12520 0.0684127
5517 10476 0.00478008
16086 19880 0.660077
16588 9898 0.648416
19352 4445 0.666869
10358 11394 0.0573735
13071 1778 0.977245
5162 7625 0.293758
8820 3155 0.156073
16139 1558 0.174478
11350 15098 0.503538
11994 9414 0.857965
3605 874 0.947227
8634 16676 0.0545071
2056 4401 0.105784
18022 18285 0.0726985
13085 16372 0.604215
13864 5787 0.471203
12955 5212 0.428051
10085 14344 0.66422
5945 11763 0.352712
5005 10715 0.170997
8331 10414 0.579079
10962 17191 0.82238
12822 7682 0.738837
11886 5168 0.600643
416 13824 0.171173
1832 8472 0.827608
12473 18460 0.0532263
4541 9624 0.398983
1993 1151 0.437293
12671 10108 0.941546
18983 18836 0.0101476
5924 15431 0.414792
17001 2661 0.961272
8959 15453 0.1596
8724 11472 0.402979
14400 3463 0.649949
11366 9847 0.740996
17281 5246 0.71089
8736 10648 0.000229883
13510 6485 0.39078
13321 2070 0.73367
206 3347 0.951229
6729 14265 0.786944
15302 16529 0.355212
6593 3952 0.269947
4936 18163 0.665275
4142 10209 0.422188
14398 7223 0.554597
3365 4130 0.720327
7701 8506 0.58711
4462 18927 0.306155
12360 10919 0.0533303
16024 19760 0.702836
8592 3898 0.385821
8538 7517 0.596319
16024 5695 0.848177
1527 14302 0.262819
13914 15181 0.932427
6704 12995 0.0723622
11987 11642 0.595131
7151 2982 0.435017
16365 10627 0.404942
11942 14992 0.263129
15752 3214 0.0697945
823 5663 0.247713
3074 2719 0.263526
13149 577 0.574297
10669 15554 0.785149
7397 4933 0.310589
2820 7954 0.369518
15935 9788 0.609432
3235 10250 0.940793
13595 5818 0.180919
7076 18191 0.103048
14332 10078 0.369741
11526 1540 0.0947976
1308 10043 0.0906488
2995 1892 0.447794
9931 2437 0.304003
5337 13941 0.124456
1343 4474 0.836524
528 5727 0.0112339
16619 6774 0.370112
576 4875 0.962072
5644 8200 0.491789
11644 16044 0.36204
9428 4746 0.225131
6712 4873 0.107778
19208 2410 0.209547
7752 653 0.161784
4853 3973 0.0591877
824 4458 0.999097
19088 12275 0.662456
1141 13021 0.294732
18969 6109 0.930455
3792 2193 0.181211
12428 18874 0.356208
14239 13928 0.745859
4590 9902 0.0129169
762 1026 0.63979
12623 18171 0.386804
1232 6052 0.778674
5791 13094 0.774936
291 3394 0.357677
19457 6107 0.906173
13374 106 0.693746
211 6483 0.816351
3174 8737 0.60471
16399 9244 0.0709264
15750 12031 0.861932
10370 10310 0.84224
12519 11546 0.121334
4783 12444 0.178561
3706 10980 0.825521
2047 4282 0.919882
7629 9365 0.0694985
2714 11672 0.919742
6495 1574 0.100951
15014 7514 0.11368
7511 9422 0.328895
2068 392 0.953625
3152 19430 0.995492
19025 1304 0.790457
898 637 0.0201307
324 2995 0.672292
6598 5014 0.747251
6149 7900 0.479957
7767 5276 0.253231
2053 8263 0.260461
18136 1851 0.0301732
15195 14345 0.0209419
6352 7058 0.00827184
10640 16186 0.300965
4641 18256 0.23848
6732 7091 0.412343
1448 18096 0.324311
12580 9405 0.486885
935 14039 0.3534
5197 3015 0.241803
4595 4296 0.027781
2026 4295 0.924529
2029 19666 0.378473
822 17761 0.645395
228 8785 0.560185
3376 5051 0.669543
7382 17391 0.345309
7630 8056 0.146428
1595 7991 0.55282
2389 9768 0.220956
9687 4984 0.466597
11314 8328 0.860158
16456 13409 0.617709
1901 12171 0.912279
2744 16623 0.282999
2481 16805 0.244562
5436 3 0.742558
4771 1775 0.630689
7752 9260 0.421116
10895 1041 0.938919
5366 16884 0.0102561
8038 3801 0.232604
2071 17247 0.735332
4438 9114 0.949729
6847 5702 0.98224
9637 7270 0.68125
10594 1252 0.792265
913 2374 0.1722
16078 13917 0.471475
2568 4318 0.609492
1118 5208 0.368704
13074 11119 0.920819
3625 3132 0.866913
210 6508 0.727019
8102 11788 0.809856
3038 4706 0.327995
7414 6682 0.269732
16278 1480 0.720649
11844 9528 0.71386
12625 12244 0.807503
9636 17817 0.778637
10461 1968 0.259547
3768 4225 0.729294
14290 10260 0.801737
14616 19233 0.971197
10463 16358 0.626509
6295 4119 0.297758
4512 14623 0.514459
11073 18728 0.932965
15873 9025 0.485583
7241 6328 0.893954
3188 17899 0.230274
2188 15971 0.741886
7857 12221 0.84047
9123 7253 0.65088
10418 6802 0.973961
10714 12800 0.402354
4453 818 0.351143
12920 410 0.99633
13078 11388 0.957844
5928 13069 0.283024
13304 4609 0.167419
9785 6872 0.405917
2084 8973 0.423616
9664 9929 0.650071
1632 14061 0.667232
1215 10895 0.749322
11013 349 0.228919
7478 15271 0.609361
5232 9541 0.958972
8057 5885 0.159846
3557 11552 0.0079229
8607 13437 0.59154
10137 8853 0.265802
9291 13758 0.750677
3470 7349 0.611117
17770 7824 0.696346
2421 6260 0.692777
4130 13831 0.364649
4889 4122 0.824433
4927 8376 0.965962
10932 1426 0.115662
6070 5357 0.926665
588 16195 0.247735
11743 8988 0.380639
6418 12556 0.904716
12775 18989 0.709765
15752 12199 0.406662
6338 18379 0.180807
11792 3798 0.393738
8027 8939 0.170135
977 9947 0.783767
4130 17345 0.98699
11733 10952 0.319406
4732 12469 0.490679
2109 3024 0.197927
4212 17311 0.701806
3296 19456 0.447662
6754 9947 0.469471
4088 11475 0.00249242
16927 12727 0.92378
6089 367 0.802382
7102 2457 0.724182
17478 3873 0.378722
251 3664 0.683945
998 9818 0.442503
3439 6310 0.526629
762 443 0.508827
13579 12453 0.236433
17719 3094 0.820397
9829 3238 0.0601183
6339 13942 0.584998
2813 12262 0.650176
1530 2445 0.0870444
12927 10782 0.0237203
12510 12105 0.407926
8448 12768 0.30458
11674 6972 0.549789
1410 12495 0.70824
4702 1965 0.505479
11351 7043 0.803136
11543 9611 0.609035
415 2489 0.916823
7118 8484 0.373319
16498 5697 0.395447
11846 11742 0.20879
10120 6650 0.875098
9340 16728 0.408394
9330 4166 0.402308
4197 17043 0.172635
9829 18348 0.618629
697 8942 0.546246
16926 16314 0.508894
5308 17609 0.498232
12252 5913 0.074628
6291 467 0.658546
10248 5889 0.460922
16030 10393 0.913038
504 16832 0.261349
4006 620 0.492873
6263 14525 0.057414
8833 1070 0.163476
6804 8156 0.526461
13452 2520 0.367986
18083 7593 0.24147
6085 6811 0.0797768
17782 258 0.780022
9414 18587 0.323265
15736 6076 0.625251
12456 5911 0.943678
1221 696 0.936075
4641 985 0.137281
12381 15315 0.276471
2673 6411 0.494336
3593 7582 0.186671
4886 4660 0.950705
9536 5390 0.158951
11167 19739 0.750018
17021 11551 0.996345
2358 631 0.280392
10598 2770 0.0620175
6827 10449 0.111161
11950 15597 0.63971
2280 4459 0.852282
11974 11883 0.888189
4459 2863 0.075844
11507 3662 0.524472
2713 8595 0.632785
12049 5420 0.163351
9962 2400 0.549144
8702 302 0.634555
9411 34 0.0277021
13460 300 0.939294
8573 5169 0.673538
4382 1219 0.980871
17053 17269 0.183878
11802 17570 0.763318
7528 14262 0.993346
8326 2786 0.246115
10164 2336 0.0545071
6499 8269 0.129134
7331 9610 0.779966
919 5856 0.0603724
14554 9828 0.837133
10795 7853 0.951686
9120 851 0.425001
5183 1472 0.467765
10046 10135 0.186227
13651 15137 0.449343
6679 4008 0.867781
16723 10509 0.239841
7328 11004 0.192304
12123 11980 0.653634
33 11580 0.604337
7483 15532 0.248725
11648 4357 0.76748
6006 18585 0.125234
5528 11336 0.808353
18070 3897 0.0559442
11757 9132 0.754392
3581 7816 0.807483
8020 16425 0.194729
18692 14380 0.364087
19624 10375 0.331608
5087 1416 0.866004
979 3861 0.457391
10252 10287 0.415519
1796 11630 0.437417
5061 10890 0.934774
12067 13561 0.75795
17244 16297 0.677854
802 11749 0.364319
10665 4042 0.0471724
578 11612 0.401674
197 8265 0.328266
1482 11644 0.547918
648 17647 0.310144
2796 11584 0.250147
10465 6852 0.0490953
2813 2119 0.153121
6698 18017 0.969593
7207 1921 0.592703
6884 7002 0.492859
12114 10128 0.0609241
110 19116 0.639859
4582 2982 0.284568
18509 6106 0.630569
9771 4829 0.724919
4440 5540 0.250843
2495 560 0.948851
8503 14949 0.159274
19351 14948 0.0449123
11150 4502 0.394762
4124 4938 0.0462887
8833 4048 0.290617
7531 2329 0.560954
8833 19074 0.234309
14714 12212 0.286448
4135 5238 0.0266667
12861 2735 0.877004
6290 7993 0.983281
7127 6920 0.687083
1944 5372 0.521069
13287 3064 0.492908
3708 7703 0.598056
4006 9400 0.533513
17002 11373 0.508086
7400 15144 0.715969
16199 15687 0.193458
753 2589 0.849531
2867 13736 0.0353453
17530 4504 0.662456
5028 10499 0.699423
3379 1230 0.766204
1158 6334 0.0528821
5919 7544 0.57074
12708 7392 0.334218
5761 330 0.993219
10207 12026 0.972807
1338 11456 0.882316
2321 19192 0.888332
4943 15823 0.964689
9375 1754 0.304623
5158 199 0.941701
12402 3892 0.252347
13666 8287 0.993914
17216 2819 0.199256
3235 10458 0.463267
7479 4004 0.591466
16816 8024 0.429187
11347 2551 0.470219
12161 17461 0.308424
2024 9739 0.327939
424 2001 0.557032
17312 13904 0.995841
12933 12676 0.38339
3650 12820 0.410077
10136 2295 0.0531069
6440 11234 0.358228
6664 6693 0.179912
232 8038 0.671793
360 2922 0.995127
6677 11718 0.544268
19902 7031 0.916585
17685 9415 0.0614525
1083 7353 0.710977
6794 16350 0.735375
5879 19729 0.569131
2506 18389 0.541818
1277 11476 0.815962
3214 16707 0.358884
4026 12583 0.208251
6783 651 0.0148996
10855 10045 0.366499
12283 6479 0.567687
8659 8559 0.963467
4239 10599 0.70548
14775 3046 0.100841
5060 4536 0.16041
622 12731 0.739849
6348 6716 0.588105
9578 8364 0.671967
2688 9737 0.912761
7762 4812 0.566849
10234 10454 0.70987
9073 13889 0.725101
9790 17800 0.984941
12405 904 0.0387165
11262 9528 0.994501
6068 15366 0.625076
14379 1819 0.88822
9853 12405 0.968711
8896 2167 0.460064
7191 3252 0.324696
3092 8309 0.0703223
3502 12197 0.388608
9584 3480 0.831622
4632 5947 0.653112
15477 15238 0.218639
9126 5047 0.6842
13123 6260 0.136548
3227 4784 0.0811598
9729 12136 0.141277
4385 2666 0.905313
8284 2686 0.538259
3045 5738 0.347222
10604 3597 0.940202
2885 3987 0.977588
9622 12762 0.178308
19718 15286 0.801737
2975 11259 0.983795
6470 4491 0.960114
19479 3885 0.310245
1480 14078 0.325054
4243 6585 0.308076
19224 10673 0.486403
6819 15830 0.27769
12954 6898 0.930373
6367 1682 0.988853
11966 14763 0.214475
9085 8540 0.0655657
4429 4952 0.48148
9977 1013 0.157262
8448 12737 0.0954518
5855 2382 0.91004
3994 1115 0.808283
10762 5153 0.146398
5783 9161 0.660434
2911 15454 0.655886
19357 8437 0.302984
13195 3133 0.38339
7413 1991 0.491313
5257 15086 0.370026
11352 10254 0.0687376
14511 8318 0.103343
1971 7875 0.694463
5461 4128 0.634412
16790 8312 0.780652
36 19373 0.355264
4143 12567 0.700755
9930 5331 0.114261
15417 14903 0.343578
8437 10499 0.685182
12452 11556 0.771079
12108 12853 0.060108
17445 17191 0.711726
16882 123 0.261257
7463 1122 0.468831
15056 13816 0.960378
18701 420 0.300551
11795 16078 0.895014
16728 4003 0.700337
18550 14743 0.44055
9433 6281 0.040948
18306 15333 0.737491
6036 7882 0.367759
12497 1661 0.866532
4246 100 0.0609909
2724 11493 0.581019
38 8472 0.227656
9198 18439 0.958946
17938 13573 0.0237892
18273 16004 0.28088
17460 15029 0.297054
19845 2189 0.827446
3023 15893 0.156464
14071 4475 0.255659
2352 4611 0.352734
11348 946 0.98521
14901 229 0.284466
7078 14738 0.494512
3857 7718 0.419407
756 31 0.850523
7417 11303 0.0420006
8610 2204 0.605494
12735 10118 0.454329
5102 7162 0.160537
7509 9728 0.208764
4634 8057 0.850364
353 14706 0.614717
10990 5876 0.48362
341 11786 0.690606
16968 5623 0.340648
12650 12795 0.392841
2768 3958 0.400221
10363 11582 0.520958
773 16151 0.67476
3917 3255 0.090117
15091 11905 0.0551394
2724 8407 0.832273
6782 1956 0.330664
11261 5380 0.906305
6592 10694 0.0989261
5510 16867 0.208341
12230 5499 0.717705
15349 1992 0.380094
2820 5936 0.0350307
17924 6423 0.447223
14401 16390 0.106132
1103 999 0.840635
16997 7887 0.311679
8968 17156 0.0590178
19127 382 0.90627
870 9197 0.825304
13444 14889 0.0546835
4043 11798 0.542772
8131 1162 0.39043
4051 2239 0.94398
11199 4719 0.743597
694 7776 0.063327
19449 2158 0.107215
6705 14952 0.580015
12490 16695 0.229851
7425 8615 0.833988
1560 5204 0.137378
4866 19378 0.986516
11870 10419 0.812754
1730 7511 0.418004
7595 19603 0.158765
2610 2041 0.646798
5215 3441 0.500693
9293 13288 0.0576052
10558 8444 0.491033
741 8807 0.178319
11662 16590 0.935051
12465 1393 0.453761
16487 7234 0.966464
13416 12103 0.400595
9046 9324 0.0392804
18618 12275 0.618717
4013 3095 0.596562
11012 7645 0.86384
12038 17498 0.552436
2975 4763 0.110681
7430 8084 0.505877
14407 2541 0.349731
16754 3298 0.389443
18089 2553 0.348952
7409 12241 0.286398
9438 5077 0.805384
5959 6909 0.691385
5437 11579 0.724871
3036 3545 0.0374218
8379 15550 0.376037
502 13333 0.660607
14827 7898 0.361964
9635 5554 0.349626
3263 7373 0.211563
453 4069 0.331592
6232 3315 0.991033
18704 18955 0.0750516
11729 10255 0.686781
800 2522 0.00705646
15581 17604 0.205645
2273 3609 0.459908
4382 17187 0.863447
11527 4736 0.391227
136 7424 0.836604
4745 4665 0.634314
2441 3867 0.39409
4383 8786 0.818381
13589 12251 0.818697
1183 3461 0.0276907
18085 2837 0.329709
13290 15270 0.375893
12089 3528 0.286313
4946 5131 0.893296
16893 12230 0.566293
517 11315 0.111558
7811 3070 0.0787695
12587 4846 0.801855
15420 5307 0.114233
10771 10158 0.946986
5032 12760 0.309153
11423 8932 0.297845
277 9227 0.0749313
3505 4363 0.209942
5554 4268 0.374204
10766 5023 0.898162
9872 9835 0.0251587
8933 2325 0.0520475
4011 10534 0.170694
8983 5493 0.247374
18931 10344 0.0559442
4546 7447 0.999244
9567 5984 0.138548
13645 15050 0.0508983
5175 11141 0.475109
8499 12294 0.853435
18388 8041 0.747436
13825 6090 0.841127
1602 10809 0.936144
2387 4596 0.157422
14880 3130 0.579694
17929 2150 0.925489
2619 15755 0.360353
10325 8425 0.0939279
14322 2912 0.369434
5368 10022 0.0728482
9073 11247 0.100154
2128 17747 0.428351
16928 17600 0.743996
574 19337 0.17378
7591 2219 0.0791802
9762 7316 0.973472
11933 18120 0.98663
2459 8221 0.929052
3539 8099 0.165698
5557 17448 0.735881
14133 466 0.842102
2738 16063 0.458122
7989 4064 0.149976
17208 11155 0.297973
18409 3691 0.940589
1107 5096 0.0488274
5639 3041 0.0175257
8848 16997 0.798796
11029 203 0.142153
11312 13887 0.760654
282 10588 0.71347
3539 17683 0.796553
8614 17229 0.508449
699 1527 0.44141
15211 4107 0.601995
4382 4846 0.683945
4164 11373 0.483596
7513 37 0.0748238
4320 7559 0.873648
6131 640 0.87632
19411 9675 0.779719
3562 4161 0.389744
13072 7422 0.905393
4659 18836 0.480254
5063 823 0.929542
14436 2810 0.752956
10440 12364 0.0954853
7975 1426 0.246108
2375 2707 0.260977
5354 6267 0.767949
10315 1061 0.862466
9808 2031 0.186846
705 11132 0.294591
16822 4930 0.247084
1984 7622 0.435702
14521 3249 0.982968
6304 18044 0.41719
9540 7116 0.814847
6502 8359 0.767275
11755 2895 0.540846
8173 13024 0.715339
7012 19244 0.642784
6621 2854 0.130334
7916 13272 0.594268
6028 18257 0.699669
2383 2647 0.457972
6585 18921 0.973454
19646 16324 0.173253
14950 8778 0.183245
12801 4099 0.747545
4258 1678 0.0269248
14205 3240 0.36645
5044 4188 0.926092
6167 8709 0.429896
5221 7939 0.0247358
4579 7062 0.611949
11464 7211 0.164837
1498 13141 0.531854
5376 11791 0.54415
17240 2418 0.477179
7149 11519 0.914084
13585 2524 0.0954853
10957 348 0.984992
18347 5951 0.992245
15087 6898 0.255329
3778 1502 0.718437
12589 10108 0.3323
15048 8487 0.986489
5660 10910 0.610162
4193 12172 0.934196
1022 11830 0.407207
4659 1070 0.277688
12230 5927 0.707733
479 14299 0.991105
6949 1661 0.460922
4930 6684 0.345752
9258 18698 0.202987
16441 7297 0.0635395
4533 3110 0.376211
7567 7870 0.259471
11721 5292 0.260333
3508 1708 0.467371
6154 12700 0.219618
1562 526 0.10043
12734 13265 0.843402
16609 5020 0.0262006
4818 3715 0.0233555
5959 10683 0.374536
15937 14799 0.520958
19267 10186 0.0231339
15043 5661 0.47214
6176 10566 0.195792
12882 15333 0.772089
831 8713 0.133574
8271 18900 0.609035
2682 4855 0.0135135
2853 1843 0.61165
7248 9898 0.252335
16893 2715 0.471478
10744 8812 0.159938
4883 9247 0.256145
4614 18580 0.381516
8001 6406 0.146398
8119 13198 0.732049
16120 588 0.133734
14407 1689 0.530026
13475 7345 0.425198
14996 2688 0.651789
471 1452 0.168794
1013 15182 0.100818
6467 7310 0.952974
4762 1819 0.895583
6866 14915 0.294541
2030 8033 0.265626
1461 10377 0.843645
11001 17874 0.646083
4859 4 0.702144
8491 747 0.917269
966 17198 0.891352
7126 11327 0.0631725
16858 19082 0.379208
6037 5952 0.241803
9825 2518 0.978822
4679 9151 0.615887
16951 16491 0.448371
3713 129 0.388984
11048 4380 0.0447118
19750 7548 0.0674504
19976 7216 0.39217
6315 9582 0.428645
10758 6750 0.230606
9886 8173 0.918902
4293 8785 0.739905
8142 12757 0.258651
16179 5488 0.411863
3725 18212 0.664046
7593 16986 0.237961
12093 4953 0.696835
17408 18267 0.282428
11250 9288 0.955463
10353 9772 0.602874
11661 966 0.704963
10607 18670 0.561113
6217 4043 0.138961
17363 12159 0.416147
7507 14572 0.984297
4200 495 0.213599
1405 18199 0.660075
11658 2257 0.0670467
4812 3329 0.298374
17929 5386 0.362819
7044 9419 0.908168
9044 16631 0.364087
12485 19059 0.445819
13410 9371 0.304844
17892 3643 0.466796
17268 1723 0.0429743
18841 17318 0.367961
1314 12144 0.650437
3708 8801 0.261898
11866 4338 0.55635
2712 1903 0.861961
4987 5103 0.479127
11681 6162 0.864459
18805 2765 0.545593
9191 3930 0.244493
15369 9484 0.169086
4267 5525 0.602759
1430 2057 0.702911
1745 7410 0.826015
16102 2347 0.710513
3776 11906 0.604557
9624 17296 0.00927285
14114 1265 0.0671657
1499 69 0.656712
16917 384 0.128958
8241 5809 0.302011
13458 3734 0.876085
14687 8696 0.0555703
8946 6494 0.905165
4567 16933 0.728996
4424 10605 0.605367
3985 2756 0.730386
16397 1577 0.329435
10068 2491 0.879088
18367 16864 0.611637
2856 7123 0.603659
17894 3444 0.575833
2759 5665 0.933413
2383 14251 0.160824
8131 19666 0.342625
8302 7629 0.373873
1165 16801 0.525425
14503 7069 0.674654
5417 11150 0.223417
4619 16013 0.81306
7728 16011 0.119037
5826 13802 0.929772
10039 11287 0.88574
8027 4191 0.0892906
15449 4007 0.302815
3525 3870 0.767208
12627 9713 0.501963
3750 7911 0.899254
7847 6262 0.281538
7827 16518 0.498077
13797 12104 0.0979736
5312 10272 0.256011
5089 10666 0.712305
7800 10533 0.553853
15816 7961 0.11677
6344 2990 0.757538
18410 19237 0.491587
19380 1616 0.114335
505 12360 0.452436
4522 8823 0.300859
12070 19520 0.125423
5556 18112 0.317655
19681 12806 0.00969185
13453 9078 0.75347
7850 8492 0.50017
1954 17920 0.0862484
10058 9507 0.296008
17444 11285 0.608205
10699 9556 0.396076
19593 11116 0.345872
12829 9165 0.333257
11410 15008 0.849887
16815 1981 0.337525
10243 10759 0.407268
9871 3983 0.95751
7635 9144 0.28018
8324 927 0.341398
2079 10287 0.65542
7950 4269 0.823168
10362 2858 0.44322
8165 7057 0.564724
18022 18733 0.0233336
15038 1748 0.295021
19732 19558 0.217699
11632 1653 0.535135
1042 17274 0.366839
11435 3411 0.681799
54 2459 0.611395
10853 6942 0.495443
5565 11957 0.240668
8030 7145 0.532307
8841 11163 0.91419
5838 17761 0.147318
12758 6699 0.25177
12083 13433 0.157103
7619 8723 0.976413
14522 6103 0.390182
15435 11100 0.949245
19489 12180 0.449693
8600 11318 0.59865
15753 522 0.595354
8217 17780 0.418089
11700 9278 0.187028
1927 7275 0.525066
15548 970 0.647672
8841 4254 0.510757
5259 17520 0.823404
11626 2143 0.152299
7163 917 0.954088
7451 690 0.82944
6757 981 0.184193
12910 4336 0.830872
7278 3776 0.441439
4563 6270 0.0596142
3002 6159 0.0701162
4300 15415 0.34944
2943 8270 0.814729
3265 15925 0.0501932
433 3467 0.279965
9939 3511 0.114416
2814 16105 0.267381
11467 19063 0.110377
17190 12178 0.315602
19573 11416 0.205686
3868 3052 0.997656
5577 16879 0.705497
10400 8336 0.624908
4020 9206 0.13631
10603 18317 0.625162
3971 1756 0.340347
5458 16169 0.282338
193 7615 0.20023
752 16622 0.193725
19639 10776 0.308458
7390 13934 0.0896967
4477 7453 0.267659
2211 2507 0.243135
7849 6877 0.709338
12654 5246 0.246115
7067 4452 0.129134
16951 6726 0.558212
10919 2848 0.511369
2677 5381 0.815896
11151 1757 0.960914
16855 9804 0.296616
2787 14571 0.505928
2273 1029 0.211284
104 11845 0.418064
10677 17590 0.290902
4841 7269 0.0142865
17773 6427 0.841013
17687 8151 0.850399
5973 18356 0.589757
2713 9511 0.904671
7231 6147 0.871941
6968 3860 0.435473
12707 1723 0.0978355
6290 14673 0.264954
4384 16021 0.320996
7447 11992 0.449063
490 71 0.722307
19972 8594 0.810858
8118 3175 0.497096
19679 2778 0.520346
543 17038 0.0788033
7176 18987 0.120741
12711 4607 0.793391
730 7962 0.10044
2310 7679 0.0745122
510 12857 0.899727
15828 4407 0.691396
11184 13805 0.384939
1849 998 0.116351
9710 11224 0.362843
2825 6375 0.427905
6255 11359 0.711033
4729 17037 0.954492
13025 14936 0.0893407
7586 9338 0.328274
15036 9635 0.184511
6410 5182 0.707547
3905 11885 0.374335
7271 8470 0.18707
16531 5127 0.469876
3174 10284 0.795271
18180 18492 0.334857
19465 16943 0.0128716
11228 9988 0.0933819
70 11608 0.936314
4728 1730 0.328953
10195 9860 0.0940447
995 9772 0.117926
6975 14512 0.0501893
7387 10430 0.278405
11444 386 0.592996
4618 5972 0.358884
8367 9546 0.407163
6427 13831 0.997411
10008 3128 0.0982443
6528 5925 0.516459
984 3263 0.445009
9209 10087 0.693083
9353 17689 0.573792
8668 7002 0.312465
10832 4316 0.706388
2373 4995 0.00204022
5092 4350 0.117612
9436 3717 0.407275
5594 12211 0.908929
8881 9260 0.114638
10748 17860 0.394049
16897 5579 0.539468
16818 4271 0.787393
6041 5402 0.914214
11600 8956 0.717479
17761 629 0.270388
4087 492 0.0438244
18086 197 0.995192
6614 15337 0.0990262
9158 4835 0.85384
1253 8311 0.596111
6053 4786 0.338933
8436 417 0.597259
7699 7885 0.209964
14971 3391 0.906918
19329 1954 0.510329
10046 7006 0.8071
1166 13667 0.371978
1091 2315 0.409993
14331 9029 0.774724
8396 19495 0.345659
8564 16812 0.994518
6123 6995 0.621443
6299 4672 0.609123
10117 3570 0.271893
1087 14259 0.204531
15583 8441 0.382427
7332 18358 0.234528
5939 17570 0.297489
942 9233 0.0876924
13388 1060 0.222642
5624 4952 0.951305
12719 1256 0.815669
17480 16722 0.00827554
10398 17283 0.607925
19403 961 0.0925377
10739 2937 0.223923
14096 10524 0.645025
9091 423 0.328774
1381 7302 0.309099
10435 12502 0.741315
18223 17611 0.72694
1890 12253 0.587652
17306 11763 0.253741
3956 6747 0.751793
2388 12116 0.502574
5683 4989 0.717497
10532 12731 0.672475
11834 10783 0.897588
3463 16040 0.668449
6129 14234 0.650845
1925 18345 0.00277497
15285 6228 0.513525
16626 19121 0.773812
14797 10868 0.0852038
2486 5214 0.123133
16778 6387 0.987499
9517 16681 0.62914
996 9519 0.542018
4710 6486 0.661984
4388 17652 0.481474
1176 3428 0.662007
13206 9671 0.720773
17793 10970 0.719951
5435 19159 0.121093
93 2768 0.889422
1096 11618 0.944889
6151 3226 0.859459
6559 4763 0.943944
2668 10823 0.040948
13612 9833 0.447129
12234 4280 0.66743
3171 17003 0.245021
4676 11710 0.0163935
9805 8402 0.159213
19533 13561 0.169311
797 2784 0.516509
2670 13591 0.909591
11413 715 0.389028
8437 3064 0.197378
11043 11698 0.70014
7854 12733 0.76182
8692 18668 0.0605015
7844 16048 0.660755
12307 15910 0.114707
9944 7560 0.194178
16398 15484 0.396235
2632 6117 0.0541549
2889 11102 0.582942
815 335 0.995168
2964 9183 0.640776
5099 3508 0.42752
3720 8005 0.569606
1938 5270 0.578868
11965 12531 0.217378
16400 4906 0.659127
7547 2052 0.458856
5332 11281 0.95137
12845 8945 0.789546
1852 1387 0.198851
17997 1309 0.150684
5607 4351 0.179426
15809 2652 0.760077
13913 3500 0.405082
10193 2797 0.347862
12450 8612 0.796864
2137 9923 0.124456
18655 11206 0.475751
19096 3098 0.258068
3401 9454 0.18735
10965 3351 0.176134
10139 18705 0.574456
5044 6604 0.61165
13294 6985 0.533156
3350 14497 0.0912663
18500 1088 0.963467
10617 15789 0.918108
13036 12259 0.804379
19192 8978 0.255126
7536 11344 0.524939
17161 8188 0.419102
10776 7729 0.589705
1806 4784 0.618553
1156 10493 0.0952679
3363 11090 0.956608
10201 1881 0.833242
11284 1598 0.40558
12315 12830 0.211011
7540 16808 0.0440623
9541 19963 0.89367
10677 1944 0.964346
9351 19526 0.958828
7498 4737 0.673775
344 317 0.898733
18920 235 0.880741
17515 14582 0.346501
3552 5271 0.90581
10592 12124 0.137069
15062 5500 0.253382
4203 8689 0.976521
722 8262 0.28648
17606 10224 0.457217
5046 4075 0.0964488
5173 87 0.796019
19933 18355 0.0358598
8559 3635 0.797311
18087 12 0.203549
11847 15977 0.0642523
16042 7501 0.668047
1696 2000 0.969383
105 4748 0.790412
973 5199 0.175566
16062 10968 0.899432
3033 4757 0.810846
6220 10912 0.577895
341 3909 0.982987
6340 11094 0.70444
15073 7569 0.314516
12239 19919 0.164533
16049 4914 0.641511
4630 3457 0.334668
411 6380 0.696121
9411 4465 0.33897
3527 7554 0.967582
16949 7007 0.213538
12757 4137 0.189977
6563 9048 0.845607
934 4787 0.394391
9496 12750 0.271156
1913 5522 0.710659
1722 107 0.0728451
2874 11080 0.226933
11613 2123 0.961715
11356 16528 0.117118
3323 16981 0.238891
17895 15595 0.960114
11403 7225 0.216133
6185 11856 0.290826
2437 7244 0.943961
5904 3473 0.203941
9007 1057 0.113226
3036 2190 0.160888
2572 3290 0.205142
1617 3987 0.958972
8296 7228 0.864015
3419 2884 0.575125
8115 881 0.57246
9435 15477 0.147626
2849 5465 0.756413
3450 18152 0.268359
9286 11498 0.128806
12241 8976 0.816866
8892 6072 0.839862
3347 3870 0.366606
10326 16058 0.32627
12781 19265 0.470083
6942 5930 0.00533021
10414 2566 0.798386
7358 10318 0.612229
13628 5339 0.706156
5732 11522 0.996111
7249 3784 0.72561
5350 14310 0.471225
10146 6237 0.454618
7341 17319 0.330507
2757 8980 0.96744
2662 14691 0.394919
6665 10413 0.0439608
11657 12396 0.983304
129 9606 0.922249
11701 19906 0.190438
8069 7156 0.471254
4578 13000 0.275529
8503 15708 0.293401
11196 3196 0.841734
6356 6523 0.90682
524 16502 0.496911
4499 5427 0.685787
5431 19174 0.281354
2165 19735 0.23587
1275 3547 0.868764
11583 5020 0.403402
712 2137 0.842372
8612 4965 0.731806
5079 7736 0.596139
119 10630 0.937212
1762 9657 0.114763
11420 8506 0.566207
9807 6885 0.484096
13414 11107 0.91657
9028 19609 0.853946
3340 16016 0.617103
16738 5838 0.51206
2793 1480 0.0154226
16207 5118 0.0102808
7745 9832 0.956844
11774 238 0.921704
1557 10820 0.71705
3897 483 0.0582082
16251 5578 0.330183
4091 9664 0.835462
3247 3140 0.741506
1091 7039 0.0175054
4838 5966 0.566948
11707 5092 0.851895
4798 7078 0.775005
17102 16433 0.0090523
1292 383 0.69858
16927 12228 0.375326
11299 11759 0.669226
4661 14846 0.97449
1554 7431 0.964944
7410 8845 0.537032
1729 12717 0.723421
7528 18852 0.669672
12807 1004 0.598639
4834 19820 0.492369
18604 11501 0.0488739
9562 2903 0.161952
1012 8374 0.359224
12677 6225 0.275799
5577 6649 0.437395
17109 6891 0.824259
18549 6064 0.106412
12877 10100 0.382956
1238 4714 0.671325
560 16700 0.960708
17546 16130 0.869284
12224 3734 0.591749
9567 3555 0.623502
11335 8585 0.0682875
14861 11132 0.951608
4514 11906 0.984291
17738 4468 0.863651
3950 11207 0.632003
6605 4252 0.396693
1264 15112 0.955159
6114 3616 0.425448
16461 317 0.995841
10964 2786 0.873163
12685 15695 0.245511
12364 9043 0.363787
16671 5526 0.883844
11809 4553 0.222944
5120 8376 0.977545
3745 18640 0.220249
1897 10081 0.602551
3229 15861 0.645488
4696 11096 0.245894
1450 5570 0.774219
5311 3886 0.951711
11083 3939 0.48572
497 9377 0.218607
17141 1097 0.553099
4468 9280 0.977298
11783 7896 0.0228642
1510 2555 0.605594
1035 11741 0.798002
3104 11621 0.479975
1388 405 0.654748
17382 15795 0.959697
6979 16925 0.244541
6873 11036 0.482169
19834 11638 0.401614
15472 16348 0.770834
8062 8865 0.487451
4654 7046 0.453674
8856 16998 0.382262
8282 3550 0.638523
4404 3113 0.620133
18491 6606 0.114231
2649 17570 0.490767
4212 17042 0.408071
4326 9181 0.428146
3179 3267 0.146428
8324 7941 0.782146
7927 5541 0.172457
11545 19844 0.949533
7578 8125 0.17275
558 9725 0.880757
8388 2985 0.663396
6894 10430 0.577416
13297 8575 0.785149
11784 12363 0.286539
987 13313 0.796965
10235 16207 0.617278
10669 7872 0.174274
370 12542 0.125806
7253 6558 0.293607
18477 2530 0.848154
3139 12407 0.355946
2584 12216 0.168914
3228 12382 0.773155
7191 15553 0.642366
5978 12372 0.155395
14443 2971 0.133703
7269 8696 0.161761
867 9144 0.150577
10726 16261 0.576892
16377 10756 0.706189
8626 17183 0.652191
11236 5132 0.987933
12298 12103 0.720873
12213 17293 0.609467
3247 6258 0.149735
381 7546 0.230053
15891 3241 0.860368
9580 5599 0.958617
2388 5592 0.586313
14838 16491 0.85466
7650 3571 0.293592
8799 771 0.6336
18999 8318 0.486771
4395 13237 0.0823106
12863 14376 0.203191
2792 8103 0.840171
7540 17749 0.140644
5137 5442 0.317175
12829 5467 0.251899
10277 6417 0.223128
4382 16939 0.859259
760 3546 0.917576
1010 3874 0.66427
6302 6997 0.696618
10587 18320 0.502277
11503 1249 0.470641
305 19981 0.093296
5919 11625 0.704236
6284 797 0.575368
11252 10474 0.945534
9044 19385 0.245466
11631 891 0.941727
7951 9296 0.0618419
11087 10594 0.78895
8023 546 0.0144581
7929 11370 0.814358
1721 3521 0.466606
12552 12880 0.51459
13856 19845 0.442503
4694 18309 0.0924066
11817 4848 0.404109
19944 6823 0.770236
17413 2314 0.103719
11740 3950 0.451794
9647 10384 0.3202
7078 3408 0.205522
9450 5106 0.324391
5385 311 0.132578
13067 12021 0.37406
6798 3730 0.600919
9045 15677 0.755651
1253 2566 0.337145
10946 8861 0.360781
2947 4487 0.65248
3977 6529 0.889942
1075 3661 0.626948
6531 3758 0.119965
16304 11298 0.8061
8526 7436 0.0988175
2158 10140 0.0987632
4334 5035 0.495593
18735 16631 0.192661
405 502 0.530914
12325 988 0.461603
2558 8443 0.273643
17609 6508 0.624059
12672 4718 0.438761
5524 12850 0.496388
10535 5686 0.265146
3449 4407 0.502897
8591 14507 0.952974
4293 7514 0.972075
3183 14621 0.674112
13700 6337 0.465941
14263 1849 0.268556
18180 2970 0.43578
16609 9400 0.134727
9544 3167 0.32385
15318 14997 0.0499943
2960 10364 0.290617
10097 464 0.190773
2590 156 0.89367
9853 12438 0.831783
7860 17669 0.323955
12626 7074 0.935384
11144 10562 0.319586
2296 48 0.182988
15670 6171 0.250147
4786 12321 0.706683
10544 11849 0.153261
7215 3995 0.202386
12896 8586 0.0674197
3630 56 0.155763
16415 11415 0.44275
5247 7762 0.544012
7426 10980 0.563631
1928 7493 0.882601
12699 17732 0.559427
719 12051 0.738971
882 11273 0.553001
10932 2518 0.672006
1881 6141 0.65084
10687 166 0.62186
11254 11199 0.165344
7474 15582 0.743019
3811 2343 0.8422
3392 3789 0.424096
16553 11827 0.706326
745 8948 0.288366
1538 225 0.23848
14908 6923 0.848556
2455 5204 0.862957
11063 15129 0.571175
12712 7961 0.58078
767 9040 0.428663
9546 13282 0.0222026
14312 9687 0.754983
14825 4526 0.416101
3947 757 0.642737
19060 6511 0.914051
16523 1099 0.308076
8295 10845 0.560451
19091 7826 0.0497264
10898 16624 0.349666
5151 10381 0.912323
1428 7432 0.0205763
8148 5583 0.565511
5967 6820 0.371495
915 4751 0.0673916
6993 7685 0.683442
8456 4990 0.567709
15344 9643 0.891354
1848 5134 0.137917
7509 12150 0.242433
12592 5982 0.0526108
3702 9576 0.0533303
6093 15357 0.787768
6842 8038 0.588341
4822 18860 0.948187
11948 891 0.641305
6351 409 0.89824
6374 2552 0.740726
10997 15410 0.220281
12374 7423 0.455866
11208 1585 0.592468
4109 14964 0.793061
4348 6110 0.375603
11272 15482 0.632407
8033 12985 0.975809
12008 3959 0.304026
581 10993 0.758135
10238 10151 0.0753067
535 17636 0.464503
6391 7578 0.471758
1116 9995 0.796548
11027 11848 0.834562
11594 305 0.181117
14673 12653 0.528667
1738 13064 0.358885
3768 6950 0.659484
659 11562 0.672354
7463 990 0.973271
3400 6787 0.565946
3052 7290 0.983855
1835 175 0.524109
18961 2799 0.733861
3244 4749 0.831257
2821 4649 0.163089
15656 6137 0.445759
2131 768 0.348337
4572 3054 0.549598
12283 6752 0.817151
11646 1922 0.44141
8329 4450 0.106918
5977 14838 0.205573
15134 13060 0.00987483
18585 305 0.449819
2441 9362 0.781217
12709 18027 0.65088
10342 8414 0.335125
3355 12209 0.474707
14438 11261 0.205969
3908 1400 0.42638
12982 1893 0.48335
9427 10766 0.524146
2774 3476 0.720838
7213 463 0.917979
16244 18927 0.929136
446 11490 0.00373237
18905 815 0.643526
11519 10598 0.265089
1685 17445 0.599408
4137 6922 0.346495
10063 12800 0.887185
14305 10229 0.0341206
15858 19169 0.619561
3530 3362 0.299455
16185 11294 0.395475
10672 7787 0.531002
9762 7827 0.937908
8497 1342 0.838913
4278 13293 0.538954
6752 5581 0.851662
3466 6905 0.304104
9320 12068 0.448228
10930 1470 0.566288
11571 10290 0.0328905
8556 12934 0.733671
5445 12493 0.372817
1901 5302 0.470219
18886 3410 0.0217445
11183 6361 0.586758
5956 8058 0.398425
7390 14893 0.307334
18571 14279 0.573891
18699 3054 0.990699
17639 3595 0.0594343
1671 1618 0.53672
1062 1643 0.623513
156 6052 0.850854
6839 19343 0.611376
7899 19391 0.197288
4057 8359 0.86113
14336 9151 0.62737
17648 590 0.742041
19064 7833 0.0134785
6222 7150 0.567606
10776 11405 0.200603
9470 17097 0.542203
13135 3874 0.104558
314 2270 0.55936
1979 12630 0.0110181
9882 5527 0.103693
7273 15609 0.880352
11725 4753 0.570833
6070 2639 0.183744
18836 4260 0.174037
1761 4964 0.818824
11768 9501 0.554669
8324 1336 0.711478
15931 5386 0.240237
14042 6075 0.644985
10717 7347 0.868418
15289 585 0.144857
7879 12607 0.957364
8260 6404 0.494789
36 11708 0.87212
10511 17539 0.849531
5013 17570 0.211146
5904 4697 0.703073
3432 4810 0.0214998
7528 11616 0.092566
5593 1115 0.660446
8869 451 0.403904
17773 2151 0.549436
9132 9359 0.107778
8530 6530 0.988807
5155 8453 0.744105
7210 6871 0.815435
4695 7029 0.624056
8177 4809 0.948187
11369 934 0.00764511
9909 4382 0.665275
8433 9614 0.579257
3206 14791 0.640525
11839 9046 0.212462
4903 3610 0.34944
19337 8931 0.371256
18737 4806 0.694387
5812 9160 0.858561
16312 19979 0.609923
19627 6661 0.486591
3047 7511 0.611029
549 7361 0.881415
7067 266 0.891352
9760 5617 0.156923
6933 7212 0.194744
10876 15245 0.291148
15714 936 0.885887
2538 6631 0.507428
14577 8476 0.590754
19688 2345 0.696475
16410 3084 0.809828
10735 5182 0.750771
11338 19098 0.436367
3083 10514 0.658947
1844 12372 0.431159
10711 2402 0.73173
7097 9592 0.28606
8270 5370 0.591488
13364 14914 0.981412
11489 9724 0.555714
7278 2125 0.910111
1440 18481 0.347444
10164 9019 0.406423
2547 3599 0.937746
9791 9509 0.0129113
7159 3968 0.23277
14415 1675 0.187383
2879 16423 0.875405
1139 15174 0.790003
8522 6364 0.843245
630 1988 0.518055
7879 19157 0.107759
4255 3051 0.124191
7432 10773 0.740564
15062 13531 0.945653
3361 9511 0.0750352
6300 10663 0.828847
828 15306 0.163541
4054 55 0.873741
4299 12333 0.208028
73 13402 0.323518
7927 6835 0.865021
19131 12195 0.409418
1078 5076 0.101427
19247 12607 0.46524
8612 9032 0.884177
2662 489 0.198485
9091 11039 0.160233
10111 10756 0.991453
5729 17760 0.094212
8834 5758 0.0945738
10295 13035 0.57074
17041 12879 0.886888
2871 18864 0.401346
19289 12568 0.385115
2276 4853 0.19632
11019 4843 0.553001
3221 6693 0.179952
204 12665 0.956608
9308 8127 0.451712
6872 8916 0.288771
14171 4909 0.624579
6775 2669 0.880285
7781 2903 0.542296
6252 2808 0.116747
9786 10979 0.456825
8194 3409 0.690451
15519 12688 0.506624
5722 11616 0.818922
10992 1180 0.628278
4215 1891 0.190858
7050 12303 0.992381
149 2187 0.279767
4226 13744 0.539876
8505 3354 0.391269
15790 12348 0.948095
18487 10582 0.296561
160 6595 0.673995
637 4078 0.25889
13435 12652 0.483584
13599 9886 0.802103
4807 7167 0.589668
10296 10282 0.582931
11538 8619 0.493359
4705 9944 0.250048
15393 10556 0.789545
14323 17976 0.14327
5646 6439 0.205511
10375 18284 0.654467
3897 9337 0.666455
11508 3877 0.794722
10918 3887 0.29223
7535 4626 0.92228
954 3820 0.147338
13888 6443 0.895014
8480 3029 0.492462
11606 11320 0.502403
4007 14140 0.672002
11160 367 0.184427
11568 13629 0.66427
13110 3952 0.855884
4886 9373 0.0776648
10238 11109 0.913974
1699 15719 0.271893
10561 1288 0.534895
2148 2087 0.359377
18845 6978 0.0417407
12009 5332 0.591183
12354 15828 0.619561
7027 4304 0.833744
2455 7751 0.667923
12809 6008 0.428438
11141 12064 0.152382
16285 443 0.642685
6681 16449 0.463009
1689 19207 0.0880298
312 8488 0.812214
11712 3393 0.632917
8792 1832 0.281538
6385 6200 0.607399
11406 18387 0.157858
2920 19952 0.742972
9179 4697 0.996641
5350 10078 0.997265
13170 6855 0.352712
4145 7868 0.445692
3845 7962 0.66402
6 8000 0.30869
16080 21 0.996692
1643 5038 0.0747001
12666 16255 0.30881
11686 5704 0.518848
3231 4181 0.317186
551 17035 0.833935
9937 5003 0.796553
12941 1116 0.485546
2057 11238 0.446656
11699 1491 0.960075
1325 4746 0.40269
1166 3187 0.476991
4463 4467 0.00985337
2479 11164 0.683634
4783 8448 0.887358
3330 3385 0.226352
12324 5306 0.326586
13460 7753 0.403117
420 18337 0.332181
13889 10442 0.228525
9894 4171 0.0106494
17255 8138 0.267125
9001 5317 0.563111
4687 6890 0.902316
1470 5341 0.133802
11316 6414 0.617405
11078 3897 0.788927
19567 5115 0.0196103
14179 4559 0.442121
9345 4986 0.977365
16148 10485 0.647497
11504 14043 0.566963
10081 1745 0.687168
13632 8536 0.869211
7468 4392 0.455257
1411 2057 0.84586
825 8322 0.402987
14836 13764 0.189087
8752 10157 0.637554
8377 9714 0.30745
4661 2975 0.475257
4987 2104 0.485388
5144 7117 0.952785
12845 10470 0.387724
10215 7783 0.506031
4638 559 0.101427
10532 9724 0.453734
2640 15303 0.834401
1417 6006 0.311442
9182 7403 0.205912
12122 6526 0.845356
6300 7817 0.280274
11483 16871 0.000110714
3066 16187 0.567355
11177 10560 0.221424
8218 8414 0.759689
18521 15926 0.523243
328 4906 0.625911
12654 16433 0.477009
16526 8204 0.5792
7396 16783 0.936673
10910 5671 0.191195
5264 2406 0.718715
8349 806 0.304046
14960 249 0.156439
3949 14457 0.90736
6624 18597 0.583643
13382 11201 0.876834
12252 9012 0.451715
5683 12550 0.711862
5973 19866 0.248564
5670 12047 0.218345
4175 14816 0.099041
541 15888 0.962043
9803 12687 0.558928
143 315 0.887619
18844 11707 0.395675
14015 16337 0.599975
6770 10653 0.615073
2318 6629 0.493036
224 7943 0.938783
5496 5527 0.00083538
5659 3123 0.124527
8380 6466 0.348899
2157 7889 0.389742
8707 3522 0.372721
14156 945 0.283081
5870 9503 0.580379
16279 6627 0.38665
9969 1567 0.842708
2935 15185 0.561699
19802 1126 0.272668
14276 3846 0.191764
7569 6095 0.10863
12016 3703 0.312249
16976 10408 0.867055
8887 2147 0.620781
1994 3197 0.735332
5380 9370 0.323518
9378 14522 0.960914
7412 3212 0.705647
6315 2830 0.280528
2717 27 0.139986
801 3836 0.221175
15253 19626 0.315131
18144 10762 0.576745
10147 15738 0.614449
1204 17517 0.768806
16884 5374 0.171784
10166 8403 0.712286
11640 18556 0.010089
94 7734 0.736032
577 4749 0.833023
10416 5068 0.0428435
15893 18664 0.204569
3601 3550 0.545284
761 11490 0.977377
13671 2322 0.237322
5011 3078 0.0802326
4059 767 0.515859
16455 1761 0.955034
7275 12715 0.571839
6381 7188 0.495053
11112 4457 0.852935
4274 11710 0.599164
151 12773 0.183944
11303 14645 0.753895
2202 6355 0.658692
5930 9826 0.66079
6686 12358 0.162731
2909 10269 0.636804
10109 11426 0.411952
12901 8974 0.718578
6193 5784 0.337766
10618 11384 0.469919
11164 9841 0.921283
14932 6534 0.0129113
7869 9587 0.37071
8059 10667 0.809757
7692 1036 0.0530655
14031 19314 0.732532
5989 18794 0.613611
7041 12651 0.103904
2935 9658 0.700799
14379 10734 0.327225
2633 7930 0.940978
12944 6107 0.298207
3821 18294 0.866652
4829 10284 0.25873
5255 14367 0.328372
9281 12971 0.495515
203 10883 0.941687
11780 9903 0.762498
16666 7068 0.847095
3409 9300 0.712217
2132 10814 0.985572
19712 16913 0.0513872
9366 4876 0.789483
3002 8954 0.374204
9266 18627 0.429969
12329 840 0.369393
4732 8923 0.889353
927 14308 0.537239
14938 9168 0.988807
3735 451 0.696322
6093 10275 0.889225
8412 16721 0.600052
16632 18972 0.468823
2887 2618 0.0488791
12531 11813 0.126259
2463 15516 0.48924
8412 2881 0.193347
1320 11195 0.865223
3233 5275 0.602172
4102 7571 0.812819
12094 4433 0.345922
5428 8771 0.251886
15520 8084 0.537032
13666 4885 0.954852
17861 7400 0.697462
8402 610 0.504854
4130 927 0.164721
2736 2896 0.70085
3276 17671 0.393064
6003 11018 0.708205
14029 2463 0.749575
334 6675 0.932427
13244 1058 0.578943
1809 587 0.341348
12602 887 0.197092
4548 14104 0.250803
11437 11030 0.304662
10302 5477 0.665303
414 17679 0.444793
2669 12706 0.866569
4911 3463 0.985395
8261 7920 0.478592
12709 6074 0.993175
14753 214 0.373896
2781 2482 0.504074
5273 18241 0.241752
7052 9667 0.0670547
4082 18999 0.532065
1770 6230 0.722355
17474 2240 0.658211
9596 349 0.173253
1871 5471 0.579694
2180 8303 0.76055
6800 4368 0.402263
4216 6366 0.0785332
5239 9787 0.368854
1956 15250 0.867407
11679 11403 0.657155
14708 7022 0.0308324
8604 3226 0.225502
12447 9128 0.188949
9444 3500 0.36204
9432 2321 0.816719
4358 19646 0.147853
6609 1386 0.840833
10831 15450 0.898253
14124 17576 0.904263
8496 1650 0.409342
966 16130 0.588251
8049 13784 0.132579
5982 11578 0.0151878
14027 14279 0.352172
127 3310 0.0660011
15791 16308 0.332535
16745 18260 0.11217
14616 17781 0.641291
9478 4598 0.474857
13034 4667 0.0548732
18456 12295 0.0141288
8132 1202 0.652044
12578 3921 0.203371
8083 19838 0.213242
9204 4233 0.65388
14917 3188 0.802992
8113 10389 0.510159
2413 19032 0.160007
14329 7992 0.318429
10966 2982 0.350515
31 4450 0.354131
19572 13189 0.0664866
8036 9514 0.536166
2989 8347 0.538579
18580 19111 0.482227
5897 18194 0.268364
4727 1248 0.0519446
547 2449 0.152194
16232 9195 0.23726
970 4302 0.166848
1078 1375 0.110573
8095 7420 0.13075
10665 15568 0.353879
12228 1165 0.302531
1186 15588 0.163698
5435 5415 0.523532
19480 16892 0.0925377
8100 15229 0.00133287
3230 18250 0.8101
17685 9421 0.409117
6224 11761 0.0510312
7043 9351 0.54578
14236 3958 0.101975
12099 8321 0.998487
2686 18162 0.0812244
18484 14845 0.0479751
11215 9091 0.0687078
10140 4176 0.351016
4141 3895 0.189087
12081 7123 0.959493
4471 12997 0.763318
15068 692 0.846163
3184 9834 0.815769
7803 4011 0.57825
15005 7740 0.0748171
3173 16510 0.95592
1370 17418 0.805374
11446 2976 0.810862
12803 10532 0.790038
2636 8126 0.261331
8118 5157 0.12793
12429 5888 0.0530974
4031 6122 0.587548
6128 7388 0.723807
1596 8338 0.460498
9634 4972 0.485249
16673 31 0.646021
8771 4331 0.108452
5008 10155 0.584286
17954 18862 0.253148
7059 5009 0.6415
18337 12975 0.422328
12663 5876 0.589998
1297 6927 0.638236
1589 5603 0.667111
313 14790 0.94333
986 8179 0.936333
1768 11257 0.14853
11004 11721 0.242433
4174 11116 0.0581661
3333 18217 0.460559
14971 11054 0.378156
6459 5921 0.141674
10285 12335 0.0181602
10392 2070 0.355908
14500 12396 0.384108
4141 10610 0.83132
9426 279 0.303221
7911 9270 0.00184792
3242 3154 0.818574
6761 7170 0.227873
15990 5648 0.604783
3770 15344 0.789254
12362 16007 0.915935
10770 12426 0.502828
7743 5930 0.9057
16806 4833 0.417426
4056 15588 0.666029
11922 4984 0.648996
10123 8404 0.550351
10563 3474 0.671707
8896 6290 0.940308
6951 13089 0.949362
14977 6645 0.230608
6936 17867 0.2251
1707 10290 0.965358
18957 10496 0.215509
15265 14883 0.375789
16305 516 0.647183
4139 879 0.917257
19671 19262 0.368843
3668 10999 0.0937438
10578 8772 0.739681
5538 1046 0.903597
15110 4280 0.966363
12102 6142 0.460505
8672 3827 0.842344
11794 11845 0.182921
331 8909 0.813365
1079 11156 0.0891987
11678 8448 0.941515
12885 2438 0.13713
8440 8853 0.949469
8442 5286 0.613386
13705 5287 0.364258
169 3030 0.456836
13214 14354 0.354855
10952 17148 0.646274
4615 12354 0.243636
15927 8066 0.869764
1291 8702 0.255498
11532 2616 0.502349
9684 10265 0.587833
9402 11591 0.877342
8918 5871 0.0510803
13882 11856 0.142559
5534 18168 0.839953
1350 10526 0.242507
3546 85 0.519906
13053 6970 0.56959
10973 5783 0.197036
10989 18580 0.18978
503 1276 0.795717
9932 3986 0.86728
12827 7793 0.304623
8310 350 0.633792
698 3207 0.0798945
6504 7151 0.847824
6003 4788 0.292521
3625 10879 0.607399
12386 1274 0.965834
10837 11164 0.166082
11581 10525 0.729578
3963 1153 0.326572
328 7536 0.514362
10033 7670 0.376256
11504 5506 0.519407
8602 11284 0.0420754
2969 11721 0.924495
1528 9073 0.546307
8497 18816 0.424001
12556 8411 0.842895
6422 2560 0.219107
4819 16221 0.0308842
8690 8875 0.169761
7473 7553 0.898331
6204 14248 0.146416
7423 3141 0.69697
3670 14452 0.0699105
14657 5961 0.999852
11712 10813 0.665107
1565 16950 0.336211
1519 10763 0.211822
18501 14603 0.540022
11974 8912 0.00385012
8513 6800 0.982058
4079 4444 0.563414
13126 8742 0.92648
7503 13753 0.00183318
5964 3591 0.023375
175 18814 0.815459
7716 16486 0.835345
6118 11247 0.464503
9400 18621 0.499043
8727 3861 0.856641
12422 12671 0.396215
12343 2054 0.0416477
14117 5406 0.789011
2299 11689 0.776395
4000 8464 0.697656
7178 1623 0.822352
18500 2038 0.755686
13435 2197 0.0689176
8916 12920 0.270102
16662 11927 0.777846
5759 302 0.153001
186 10404 0.370377
6355 2635 0.973326
9593 17266 0.877319
43 808 0.797874
11627 12739 0.779252
2861 15360 0.834392
3100 7102 0.183041
42 10778 0.329565
9771 19230 0.031277
258 17264 0.941205
1994 1457 0.615686
9361 7767 0.653711
18988 628 0.363926
10515 12109 0.293758
1934 733 0.847824
12699 13077 0.85091
7409 4412 0.369191
5887 2983 0.797787
11090 5793 0.360851
1782 8011 0.110866
10212 964 0.154102
3006 6244 0.457296
16624 15584 0.503108
5670 10113 0.497692
6585 14169 0.702409
11006 9070 0.9406
4192 7671 0.877568
9696 1499 0.992381
1833 12062 0.320996
16674 6189 0.362214
16329 5601 0.246831
19712 2123 0.58969
11287 16886 0.282523
3618 16950 0.882709
7198 7628 0.0934717
14565 8284 0.928416
3482 4036 0.337019
2058 1846 0.102781
4698 9812 0.201091
1772 4325 0.386987
18576 626 0.12353
2947 10498 0.380784
19937 1655 0.962647
19182 3739 0.796553
785 17541 0.160233
5722 2767 0.201931
7945 11313 0.482655
10854 13832 0.583772
9594 10422 0.323375
15913 1330 0.217584
3005 2252 0.481271
8708 171 0.223418
5 12127 0.367876
2866 3192 0.637465
2822 8306 0.113117
6456 15048 0.217016
12692 19766 0.863911
11041 7806 0.831449
5501 1236 0.0429743
7235 1990 0.854255
13695 11105 0.55949
10287 10702 0.533952
9249 12350 0.868204
16408 1816 0.0921529
884 15945 0.208251
9398 10269 0.172635
3214 2955 0.625911
5493 6438 0.246932
9836 7134 0.520517
14558 2126 0.535352
18217 16594 0.43685
6137 17116 0.0936932
1969 4332 0.543456
3961 18965 0.776694
7872 11498 0.0174474
5907 17826 0.96919
9225 13624 0.390489
4453 3393 0.649128
10039 2341 0.728558
6302 2528 0.948135
4248 10203 0.880974
12561 18686 0.731996
11140 2463 0.43578
12021 6244 0.995865
3740 8658 0.388109
115 3695 0.762269
6057 1754 0.853464
5679 5383 0.691573
9165 431 0.270818
2150 181 0.4581
7017 9388 0.185896
13040 15876 0.70085
8895 155 0.827026
2830 18499 0.763968
2859 15992 0.912775
16023 6258 0.639056
10448 8334 0.0920414
5879 18583 0.135648
16607 10544 0.464451
16323 5242 0.905246
5505 15152 0.997141
14811 9559 0.343296
5858 1419 0.116747
1073 11712 0.733074
6476 15862 0.183996
6144 7813 0.888516
19142 2190 0.752956
2767 10886 0.410133
14122 7321 0.551327
7269 2211 0.175332
11206 12548 0.0853395
8557 8614 0.195674
4157 8768 0.91944
9258 16736 0.619683
7625 6079 0.481162
2912 7107 0.643025
17573 6806 0.125863
197 3817 0.76035
16800 3628 0.868718
3090 321 0.543266
15312 8645 0.138974
6664 3230 0.864475
19420 15845 0.704554
7003 3054 0.795571
10167 9091 0.535989
8045 4131 0.851423
67 16500 0.522774
566 4589 0.144552
19242 8109 0.965237
9553 9989 0.455907
12772 1023 0.741201
9040 12566 0.526947
8926 11449 0.0673461
4922 15324 0.600239
5029 5625 0.555536
2731 368 0.710461
2059 12072 0.202959
3137 7629 0.461053
9317 19087 0.0222026
5340 3870 0.573095
12639 11061 0.794715
6958 2951 0.267629
2155 16131 0.980966
9898 9951 0.792146
11270 16711 0.225233
2150 8921 0.4385
557 1608 0.639453
6821 19453 0.404483
11600 4723 0.666068
12113 11069 0.801862
220 2895 0.989945
994 12673 0.528562
1409 2178 0.923156
12558 10639 0.823168
7456 19244 0.0315436
9210 7182 0.776764
10542 637 0.880639
10685 3959 0.511407
10837 17735 0.165752
618 12043 0.259174
1939 15958 0.475473
7223 7824 0.174757
1062 17341 0.0383688
10557 4795 0.438574
680 6359 0.792243
8433 13487 0.850399
10435 3006 0.553625
12057 2010 0.389028
1432 15856 0.263488
14659 1242 0.241722
14239 919 0.228828
11947 15290 0.802323
17586 8849 0.752002
2356 5549 0.781634
10997 6396 0.551424
10962 8614 0.416976
3080 18200 0.646147
9128 9551 0.931812
7398 9161 0.938887
3886 1820 0.623271
14992 15842 0.995865
8777 7949 0.406907
5211 3117 0.864052
10725 9947 0.762838
9802 12091 0.838362
18084 14592 0.862685
15260 4736 0.927707
12371 8236 0.127275
7322 2025 0.480978
487 12565 0.427027
944 11923 0.302226
66 5511 0.794429
16421 11676 0.865711
19967 10473 0.761961
14496 3512 0.959697
5755 7056 0.550646
7086 9302 0.507317
2802 526 0.781217
11363 2367 0.574001
9346 11839 0.335741
1670 11095 0.645376
784 14299 0.109623
9453 1257 0.0141521
78 12490 0.197036
9417 10345 0.634042
10785 508 0.792606
4818 10018 0.0138247
16784 8195 0.154669
18523 13209 0.816669
6993 3415 0.562801
732 18614 0.707789
15889 6128 0.862957
5472 13996 0.0947049
14836 13315 0.666949
13868 3270 0.770584
10190 16339 0.984941
4459 9142 0.465599
5599 10701 0.453412
18842 10537 0.301759
12272 15343 0.719345
4294 18768 0.145559
3500 5353 0.0585952
14566 5337 0.685825
19115 1035 0.128977
6786 9707 0.958342
5095 11530 0.541526
6250 2512 0.827026
17244 13359 0.149793
8328 734 0.626436
3678 2162 0.308292
6006 10392 0.220952
6044 8639 0.0204776
10946 6178 0.0533871
17924 11062 0.782919
11394 13123 0.598433
477 5881 0.19775
16069 9103 0.994816
10684 12622 0.72541
5840 5721 0.0151878
8806 14542 0.32506
6862 18853 0.553001
336 2056 0.981016
16657 806 0.492774
9821 12766 0.342176
1971 3970 0.251948
7462 12988 0.06033
4089 10521 0.965394
6849 8989 0.739543
17347 6990 0.248846
12751 1231 0.944362
9536 8839 0.400583
9676 756 0.652058
7130 6038 0.73409
962 5330 0.480696
18562 17200 0.625346
9394 1092 0.599213
1532 12355 0.415893
8057 3882 0.565899
149 4857 0.623613
6234 7164 0.532814
13783 19980 0.385754
3474 4652 0.0470013
3453 6061 0.293151
594 17819 0.952534
3120 202 0.0852038
8642 3934 0.77571
5265 1253 0.693746
2745 9456 0.662132
3227 10661 0.103849
7283 18190 0.155046
6039 12356 0.694092
8672 500 0.159284
17385 9283 0.219738
18097 9596 0.180152
2810 1004 0.094109
1794 11662 0.67934
391 16788 0.560318
15707 5136 0.85832
11927 19777 0.796235
238 11154 0.545758
4475 1351 0.0509777
8484 12862 0.163455
7258 3898 0.177899
19274 1767 0.0450977
939 6082 0.929386
4534 16578 0.345999
6422 3213 0.596139
9843 16730 0.776837
4592 5356 0.532935
2934 11426 0.588583
16725 8001 0.624306
654 3560 0.933256
874 8121 0.369435
14199 7922 0.45125
14562 508 0.366222
960 10161 0.299398
5238 7206 0.573543
13145 12819 0.169172
10692 12356 0.408559
9618 8460 0.653507
11411 7983 0.482115
10495 1091 0.683869
753 11881 0.159066
12087 14352 0.0565741
11844 949 0.524061
9835 2717 0.917257
19135 1874 0.23277
15981 4215 0.122625
5481 7622 0.927707
11949 9394 0.838891
18569 3590 0.143123
3206 16533 0.166582
9409 3376 0.983986
12135 6489 0.58209
12109 7742 0.453412
3271 19895 0.537201
17898 639 0.282203
9269 11709 0.198485
14658 12064 0.189662
11351 11370 0.635554
10176 12370 0.232243
9011 12451 0.0371586
17855 2941 0.53855
1846 7595 0.342625
12106 5989 0.049989
18057 17123 0.751506
8689 386 0.332833
1840 3338 0.875646
894 9037 0.963201
6419 7152 0.155877
7680 9015 0.353658
3002 3527 0.453679
5522 11566 0.214516
6974 4694 0.520651
2690 5164 0.0284005
1052 6592 0.927285
13284 18784 0.864206
962 1524 0.858576
5978 12914 0.338837
10011 12028 0.830685
14203 6694 0.374553
10945 19126 0.462424
9888 9212 0.613053
3275 18024 0.697365
6284 1335 0.855792
5837 7001 0.21944
2140 6362 0.203783
4022 2274 0.397282
14166 5174 0.0754778
12759 4506 0.731988
2337 18055 0.0693761
4238 2175 0.572129
14555 3868 0.390942
4473 13622 0.131689
19366 2416 0.572376
10014 1062 0.595697
3156 18348 0.620492
18949 1920 0.915141
6197 13804 0.743918
11970 2075 0.730081
7669 2309 0.678949
11779 9112 0.468368
19516 6178 0.591922
11702 7041 0.453904
16841 582 0.915385
7397 4687 0.853523
2072 3360 0.369454
15091 7427 0.853744
18510 4693 0.67687
8017 2846 0.106032
17538 13848 0.341601
16792 16069 0.401027
11957 11194 0.125234
8927 11267 0.834186
8637 9322 0.0827484
1651 19138 0.24515
4730 4659 0.217107
14446 72 0.0200456
9150 2860 0.00493164
916 424 0.564115
452 9771 0.391525
6626 2585 0.801179
10801 12417 0.720567
6380 9423 0.0530018
1665 3487 0.339922
19884 13404 0.175332
11226 5143 0.940394
9292 3019 0.502596
9375 10138 0.283898
4708 6654 0.476517
5957 4437 0.0192157
9156 8722 0.41536
17374 1002 0.304046
10771 8016 0.92639
18021 6033 0.680055
10258 6913 0.785865
8563 11959 0.363295
7499 8517 0.21824
7365 3962 0.93825
5342 10498 0.591305
18186 5839 0.498347
7097 7919 0.212464
14336 1113 0.561465
255 10642 0.318355
1366 5989 0.52175
4362 1357 0.152984
12544 3010 0.627373
9007 1070 0.727166
6676 11155 0.79407
12496 12051 0.75384
4507 16040 0.0736723
316 12731 0.32506
3895 6082 0.664682
5043 8557 0.831783
6361 14282 0.361393
17014 19087 0.996711
244 2217 0.557052
7902 6351 0.053139
17335 10633 0.503824
4853 13559 0.676757
8354 4973 0.396541
234 4863 0.738403
9545 7231 0.442067
6038 10392 0.809773
2189 19910 0.54537
4077 13064 0.249205
1984 3398 0.580379
8975 17166 0.279256
5103 11190 0.0113353
13917 11314 0.787512
7472 18481 0.925537
1050 13947 0.559578
18112 18588 0.93998
5453 678 0.85961
16718 19189 0.809906
1806 5434 0.681002
7388 4773 0.97944
7844 1524 0.945719
19392 11880 0.827141
18207 4394 0.0503121
4806 11222 0.699555
2634 7560 0.929812
18887 6158 0.350032
1152 3085 0.345946
13708 10735 0.627133
11505 9131 0.29662
9059 8676 0.0767058
5385 9046 0.830851
7063 1888 0.348851
14643 4432 0.438264
5012 18152 0.0437073
12906 4532 0.375394
16328 18979 0.00703574
13895 432 0.925537
6027 19098 0.196666
8625 152 0.802925
9667 1936 0.878588
3889 6583 0.0978157
19419 10690 0.663328
5546 19426 0.278464
3305 10431 0.45498
567 7369 0.17503
7062 5146 0.908051
8699 18460 0.615815
3158 9832 0.0727519
2664 17530 0.593208
5668 2357 0.593984
8433 14989 0.336063
4093 2024 0.515915
9572 15698 0.258907
15980 793 0.70809
18285 9415 0.377726
10501 6544 0.877195
19211 14112 0.983986
836 171 0.720594
17233 2991 0.174037
1122 15434 0.795837
14414 2902 0.411391
17097 6279 0.569449
14925 9534 0.487505
1900 17311 0.549436
3996 18474 0.529834
10841 7620 0.739681
15131 1314 0.640997
5200 10706 0.371745
13288 9110 0.759691
19508 8671 0.953993
11157 11537 0.766131
8609 12349 0.712226
5646 6410 0.44178
10955 5135 0.0483818
4397 8391 0.206887
2963 3717 0.437834
2522 6642 0.147803
660 18720 0.28873
7591 7915 0.642773
500 11109 0.949902
9521 12414 0.334037
6777 6747 0.816093
1674 5523 0.0332259
5851 8856 0.832273
3192 13648 0.827373
12745 12114 0.105606
18181 9978 0.72369
16949 12426 0.261717
8571 10194 0.147075
620 3771 0.343054
901 4974 0.0747356
734 7958 0.963206
6048 6026 0.988733
6249 15404 0.0523066
18410 17674 0.346837
5 12795 0.338408
50 2730 0.349978
13469 18985 0.179377
12018 11569 0.900272
4949 16091 0.553436
9084 15991 0.401674
3859 15789 0.450965
8080 9005 0.748843
4813 390 0.935338
11797 4280 0.575452
11123 3956 0.486226
8078 11828 0.0114594
16186 9661 0.955866
13413 5886 0.00820158
9592 11551 0.519666
2227 9249 0.792695
2093 8378 0.883725
1372 6939 0.292641
9105 9401 0.110462
8842 6019 0.474325
404 13810 0.846472
9574 12663 0.766935
12074 9663 0.923096
14886 10513 0.389742
1929 18105 0.228919
5294 1833 0.62469
10482 7736 0.958337
1630 6996 0.552388
10641 6640 0.264715
8846 4855 0.366276
1621 13178 0.447334
4734 7379 0.796562
15934 15738 0.607978
10446 5015 0.306945
14854 1037 0.182461
7075 182 0.638751
6429 17503 0.187986
1176 2559 0.588251
679 6837 0.378243
6760 15323 0.81913
16202 8236 0.294184
4854 8968 0.951608
7029 13224 0.440346
6871 10473 0.64993
9558 14844 0.101335
703 6430 0.838323
5533 11977 0.904684
2060 13754 0.712338
3407 17063 0.978532
4436 6692 0.470641
15620 5992 0.864808
16042 8469 0.602946
18447 5261 0.458518
12680 3035 0.877688
1501 5369 0.788259
4151 3003 0.589757
12277 11789 0.0770671
3010 5735 0.490671
431 914 0.706284
8719 12047 0.460559
4886 6764 0.620409
10160 10541 0.941533
1716 5615 0.0562021
2276 3664 0.213418
8651 8541 0.534612
8802 7530 0.173619
15516 6343 0.128237
10481 1996 0.854567
3410 6548 0.250338
12429 4343 0.132419
15455 4141 0.960241
3221 9756 0.388596
3177 13574 0.705326
9318 1150 0.0744046
12710 1334 0.923872
3577 15582 0.484129
9141 14146 0.245815
15050 7908 0.518174
218 12430 0.523522
4608 3882 0.0510078
15548 3899 0.525261
5514 7922 0.541818
908 1986 0.508031
1348 7236 0.25327
16251 7679 0.53805
18051 15012 0.471631
16800 19747 0.961182
4533 5493 0.359453
11105 9795 0.431296
1217 1024 0.801595
9709 1403 0.556244
3005 13296 0.416083
13896 12986 0.858424
18757 17731 0.637888
15071 12325 0.953045
16303 4928 0.23648
8282 5891 0.344141
9823 5397 0.386765
9929 14719 0.209903
9577 434 0.639668
18186 5661 0.680223
10454 7904 0.506237
4401 9617 0.597101
1642 9377 0.22711
17037 11842 0.867831
2183 16427 0.162092
16980 13170 0.535147
9235 10483 0.791269
6624 18440 0.762973
1272 9087 0.0824052
4544 4715 0.310772
12759 8162 0.630509
12974 18224 0.0765358
2480 1568 0.112919
12267 3996 0.160462
9260 6864 0.401725
1376 10319 0.295026
9856 11567 0.613064
4067 8956 0.791931
6528 769 0.275702
3262 10392 0.403491
3842 385 0.974006
15150 2189 0.667503
4257 18775 0.301386
2623 11366 0.192348
8353 14789 0.466229
4098 2891 0.454864
3241 6356 0.556586
6884 2886 0.147692
14787 11628 0.687555
6435 4076 0.649148
9267 3900 0.62842
4714 7447 0.793955
11357 10367 0.308444
17746 7434 0.984233
8615 2122 0.0176004
670 7882 0.654147
1641 13167 0.926147
8729 10567 0.542437
6128 8308 0.522025
7702 14668 0.997696
2517 7160 0.670092
5834 461 0.920107
4326 5057 0.735541
12192 10296 0.434434
2347 1696 0.271655
2580 1633 0.684433
11208 1417 0.115994
3419 2410 0.971215
14369 7506 0.378523
8478 1791 0.129261
1601 13869 0.759145
4211 9410 0.638282
2793 4706 0.611263
8016 2106 0.398517
10420 19484 0.240292
19342 5829 0.784299
11027 5434 0.236823
7115 1898 0.556393
17030 19140 0.771482
6380 5604 0.275773
14848 4691 0.213538
10038 16544 0.621443
1321 1713 0.502818
19605 12080 0.828561
3228 11570 0.398744
1111 4229 0.313396
440 3003 0.211241
1427 7913 0.538153
9629 11835 0.840405
1566 16018 0.72195
16524 10548 0.356627
3724 5755 0.515933
9563 253 0.964367
12304 966 0.440073
16280 1772 0.772053
1121 185 0.83848
6489 17344 0.664038
6508 8303 0.227593
15904 15967 0.71386
3767 17240 0.621808
15672 12443 0.00377924
9014 17700 0.22066
2950 1668 0.985572
19533 12493 0.841822
1242 7641 0.383014
11306 9703 0.575583
5385 1113 0.506865
3509 4741 0.435612
549 2523 0.0287767
11504 19233 0.455151
7794 7804 0.00666733
3891 15775 0.80338
9992 5765 0.0243991
7482 12248 0.00126483
13281 6079 0.751341
8897 1816 0.932819
16818 6982 0.0785332
13396 11356 0.138935
17720 8956 0.777343
7478 3851 0.331074
12332 11060 0.798698
819 6517 0.40133
5212 10847 0.357924
16371 19532 0.167343
10337 2286 0.165027
9590 3863 0.318617
19091 8926 0.537025
12013 17792 0.716148
15050 14191 0.64698
18053 18497 0.788995
7227 12551 0.0906303
4759 9024 0.119135
9349 10630 0.327043
2260 2896 0.715889
7302 1338 0.9578
15666 12471 0.553256
2148 11027 0.136573
3622 9578 0.436942
3145 5129 0.568422
19123 8128 0.0852038
6241 8975 0.360737
17184 2971 0.356759
2055 11916 0.810064
9244 11348 0.109545
1699 12354 0.894482
9603 8407 0.417043
9748 5330 0.806965
5361 19814 0.747779
3982 12136 0.14939
6295 9699 0.0440211
4801 18573 0.22275
9386 6622 0.224028
12102 11884 0.475257
5472 1268 0.0233137
20 17105 0.440799
15159 12576 0.719835
10699 2632 0.212079
6539 2988 0.770351
1550 865 0.292014
16664 6539 0.647633
879 734 0.924521
2408 934 0.134727
8342 17218 0.302531
5719 12428 0.898253
5707 9007 0.896881
12370 449 0.958766
11509 9088 0.794578
1622 8624 0.904999
4991 1607 0.399046
1993 529 0.863195
9044 6880 0.980207
9298 2671 0.610251
12303 11163 0.141085
19432 3543 0.927737
10447 3131 0.25117
5313 1263 0.117957
18596 593 0.668161
9641 3017 0.696618
7905 19794 0.398529
3517 3746 0.89367
9886 11160 0.653179
5492 8595 0.0779976
2186 19846 0.426594
13379 7238 0.411564
12406 2166 0.740869
3564 655 0.0915806
56 6858 0.229754
7203 17380 0.284451
12699 18811 0.854074
13154 6532 0.620622
18613 2800 0.22066
3449 12557 0.436926
1352 19587 0.453769
6210 284 0.357912
17306 6978 0.138648
9283 12734 0.786438
18514 6793 0.0628806
3282 4761 0.379787
3280 3738 0.00142548
9028 3205 0.047417
119 7230 0.973415
8006 3525 0.820022
3670 8785 0.809512
8076 5946 0.924093
18528 12540 0.602605
3154 11863 0.331837
5659 10009 0.245438
1486 6562 0.645808
14162 1346 0.791956
10481 8370 0.440381
11118 4500 0.602795
9625 10512 0.649769
7079 7607 0.133595
18527 16146 0.886481
4919 7013 0.924495
9850 11630 0.537205
4907 178 0.040948
2566 6845 0.908034
19221 2742 0.419247
18210 6071 0.606629
12615 1242 0.498997
928 6943 0.488162
5949 4877 0.802841
10445 7922 0.975046
10328 1767 0.939628
13914 14424 0.942966
1198 19833 0.00292549
16372 5216 0.0815921
2283 8596 0.051202
5559 10845 0.222709
2809 4343 0.059801
2380 10126 0.802095
92 13354 0.127554
18314 17077 0.124454
2411 18285 0.115283
2430 15518 0.545108
5565 2637 0.435459
12057 6692 0.614588
17022 9829 0.911353
12579 2895 0.684812
6601 6895 0.239286
19002 1847 0.550209
12111 4257 0.286838
4004 4279 0.256604
8593 11977 0.0601183
12014 1507 0.919441
6122 3732 0.949469
321 6023 0.905499
5088 5980 0.988673
8041 590 0.538884
1532 9196 0.180922
7574 2844 0.591872
17449 1943 0.059758
19758 5455 0.568729
9962 2350 0.223921
15713 4187 0.69397
4220 16251 0.728788
12475 14387 0.806852
1089 3881 0.700606
8925 9298 0.324737
11097 5820 0.128948
14135 3887 0.1495
9609 9552 0.543334
17567 7704 0.33897
6284 11383 0.099041
18381 17570 0.380494
6123 15618 0.0751162
12834 7329 0.108311
6978 11326 0.575233
11363 12938 0.0696798
4 7914 0.934329
1742 8440 0.0327744
10248 13780 0.562739
10034 18456 0.408814
10449 14502 0.0216114
8760 9600 0.686368
2161 3541 0.0884384
7720 4232 0.8952
11899 841 0.618717
14771 6255 0.503587
4297 3610 0.806298
16772 12075 0.851041
16258 6567 0.615541
12253 13835 0.469829
8294 8097 0.120014
10072 4781 0.0106375
4868 12370 0.461675
1292 11969 0.298152
12631 9078 0.301788
3913 5202 0.922875
17086 17378 0.23266
13519 12474 0.908347
11705 18095 0.906949
783 13672 0.0290556
14028 2088 0.208882
10909 11824 0.556144
1339 2127 0.298874
11738 10589 0.928098
6330 10397 0.48924
5828 6238 0.0557495
10768 4583 0.723861
18357 979 0.960378
10888 3624 0.268647
2323 469 0.640391
17502 7689 0.97042
5247 1554 0.993346
6827 7403 0.132873
11420 12975 0.671415
7318 17603 0.198624
18618 18569 0.680685
6269 13260 0.568099
2259 8642 0.990795
14913 1832 0.0496788
3598 4853 0.113319
4439 5271 0.283225
14315 13384 0.71366
10980 3363 0.320996
10293 4738 0.270465
4826 12695 0.236359
8969 9456 0.260317
8879 9393 0.903616
260 4424 0.592024
14804 609 0.178263
2653 16868 0.815769
17827 19346 0.344454
18172 3275 0.241569
3954 11634 0.779794
9691 13712 0.218096
2738 5657 0.596641
18903 9595 0.642267
11055 12693 0.767665
2420 7546 0.925425
13731 805 0.801287
2396 3687 0.0730223
1365 8809 0.130999
4882 4474 0.578282
7543 8390 0.198485
8433 15074 0.343842
17293 603 0.848831
12572 6866 0.647004
648 19307 0.628378
6284 5514 0.412715
10757 5516 0.242451
7467 5539 0.930494
9228 10447 0.0261708
6938 19087 0.737941
4745 2524 0.848635
15745 11532 0.202386
4155 9082 0.384223
14369 5519 0.575642
19207 18256 0.081789
7922 13932 0.39078
18484 19862 0.649796
16037 2792 0.0619625
13423 3542 0.0827484
2060 17917 0.117838
11694 8583 0.748638
436 146 0.592483
7563 15351 0.569113
16401 9077 0.995651
14180 5247 0.746064
