%%MatrixMarket matrix coordinate real general
% Random matrix generated for weak scaling
16000 16000 800
13874 2145 0.316666
6578 13005 0.248258
9216 15821 0.621853
4873 7243 0.468932
11627 6376 0.713333
4447 9003 0.182242
14087 1071 0.565881
11435 7009 0.32841
50 15798 0.556167
437 14339 0.794592
1073 515 0.182041
10314 3009 0.413432
13412 4710 0.339342
8412 8590 0.773606
12377 15918 0.610162
1529 641 0.43542
1795 15685 0.977653
7929 15300 0.777474
13127 4233 0.53755
9354 14592 0.246319
10174 539 0.908856
11204 4029 0.844487
4675 4713 0.23877
7507 8 0.381333
3599 1678 0.952763
7708 11568 0.269369
12737 2536 0.158559
8023 3205 0.517359
1649 9471 0.267739
12234 15572 0.308424
5809 4835 0.0682825
13391 1096 0.470608
359 14712 0.188157
5128 11052 0.582262
13177 10815 0.176263
4583 6453 0.678688
14098 3437 0.801868
10942 13375 0.0451677
4376 12956 0.0938974
552 6652 0.234278
906 7933 0.631609
14259 10040 0.101287
1929 5936 0.75554
12418 220 0.86868
856 7681 0.826579
14869 8165 0.665145
10520 35 0.890068
1873 11904 0.125485
11074 13712 0.0212539
743 11882 0.604337
4045 6264 0.223421
5489 2391 0.229843
10564 3639 0.388109
4193 4728 0.773413
14162 4229 0.800285
3623 2502 0.537426
1835 2000 0.300153
12332 15863 0.29402
12485 12521 0.110307
8124 179 0.519771
4868 13733 0.701278
10850 9927 0.108708
15313 13640 0.220215
15045 8444 0.389642
8949 9830 0.295236
5634 9450 0.213242
15636 3866 0.982943
13820 8062 0.814252
13571 4827 0.721351
11924 13223 0.122205
3443 4760 0.416912
21 1393 0.416101
1258 4042 0.268129
9602 9379 0.946177
3304 9376 0.790623
1237 12581 0.307522
12409 8619 0.457353
15989 92 0.107815
7121 1149 0.616979
12634 2138 0.110271
15762 3622 0.368532
15239 1860 0.0908846
14961 10275 0.218849
14702 9576 0.373893
14633 11929 0.997101
11019 4388 0.199749
1480 4738 0.203273
6214 2061 0.0420545
3482 4693 0.628725
4315 8946 0.61636
9322 1112 0.102417
7990 8911 0.406899
3107 10132 0.40444
6384 4837 0.182943
4307 2151 0.370667
7010 9162 0.397369
6905 9292 0.497349
9655 478 0.625029
12724 3521 0.126002
15506 11552 0.407686
5259 4352 0.582398
13983 5407 0.983193
15954 7895 0.256108
14217 8268 0.460381
19 1546 0.580816
3220 14904 0.893323
11326 15636 0.403691
6766 15429 0.845762
12668 9453 0.389878
6947 2787 0.201711
14126 12654 0.337684
10103 14503 0.69198
2212 3871 0.72746
727 8815 0.413451
12194 15739 0.699394
10306 3163 0.29474
14140 9751 0.957505
3284 6572 0.0623862
8237 1159 0.611029
11024 13864 0.62186
3152 4550 0.47332
5210 7520 0.0626432
11905 5053 0.070586
12926 7368 0.675211
4277 14661 0.252037
11858 2318 0.592921
9418 4865 0.854738
12964 11111 0.488246
3855 9689 0.505438
5465 4467 0.429877
14091 14333 0.139976
3635 4330 0.0572111
2396 8246 0.30745
9839 3811 0.650747
2467 5288 0.809423
2973 10505 0.801677
843 4349 0.584469
176 14935 0.138471
8149 10873 0.908386
1412 11267 0.16868
5924 8481 0.808871
13065 14910 0.580592
4910 7822 0.244469
8872 10061 0.988506
5427 13710 0.157823
3316 320 0.127421
13750 3295 0.643163
8618 15573 0.650912
14104 4182 0.0158393
9677 6776 0.610545
1576 3781 0.201897
8366 5619 0.893323
5085 8556 0.835418
8562 4023 0.842102
5653 2927 0.168169
6995 14635 0.609945
9629 4235 0.0144954
5896 9485 0.0722073
9348 14669 0.0785634
14896 5921 0.441068
10412 12759 0.315066
7606 15423 0.160467
13249 10375 0.413016
14899 7632 0.0228396
5151 8790 0.913038
8465 12084 0.564115
7782 9481 0.67008
5184 7363 0.499094
8571 11802 0.00674484
7853 159 0.0823106
10000 2281 0.147021
6201 5425 0.521947
3590 6710 0.537258
12807 5122 0.198714
9659 12217 0.939917
8009 1743 0.812625
9908 4232 0.162175
5987 6949 0.587736
13131 5996 0.632407
1340 9744 0.985361
6017 3547 0.743724
1462 319 0.417737
5776 5727 0.302266
1075 10646 0.553001
6222 1926 0.520273
13311 4252 0.634588
2259 12194 0.253982
14133 7546 0.344794
7510 15622 0.149204
739 10515 0.176781
15271 5372 0.983281
7975 15907 0.639589
8876 14447 0.0574003
4619 1737 0.99635
9579 9939 0.332548
13216 5417 0.493028
4122 11925 0.970032
12651 7948 0.394516
4328 3368 0.115454
13914 6122 0.716524
5867 10333 0.628361
1957 6806 0.347742
15224 8497 0.955718
5551 8437 0.949157
2209 5700 0.802176
9265 12733 0.356553
8751 7488 0.38396
15163 13539 0.402732
11189 8239 0.538259
12086 3821 0.252102
8659 1534 0.641834
10342 14331 0.331644
8325 6267 0.906559
2958 3518 0.809185
4857 186 0.410321
6793 14880 0.276306
3875 7156 0.111117
8358 8692 0.903185
14438 6225 0.738606
9045 354 0.725869
2618 15634 0.482579
12602 8433 0.429906
9072 13026 0.213708
6485 6195 0.387318
9964 13176 0.494995
711 15897 0.601995
7730 11559 0.209523
9903 9427 0.251037
1162 3977 0.259313
1614 2963 0.826765
10851 2976 0.0965851
11658 1243 0.0556295
7038 6930 0.670673
9137 2755 0.304308
4721 10808 0.342146
3895 12797 0.746737
15464 6495 0.995368
1928 8005 0.49444
219 472 0.491627
7657 8275 0.344634
5008 5892 0.563414
1046 8576 0.607548
5944 8248 0.613149
3719 6790 0.525992
15884 7198 0.686187
8561 469 0.0619149
331 5504 0.0902875
10433 14351 0.756618
8542 8743 0.110484
8550 5340 0.495151
9355 11782 0.566079
12512 4718 0.0528067
9859 1178 0.417071
8490 13454 0.330127
12856 2524 0.593218
9739 7432 0.972739
2916 5573 0.499739
929 8460 0.0844177
11878 12704 0.0783785
15644 645 0.478415
7133 4553 0.0704238
13649 15692 0.72477
5559 6717 0.629371
2268 8284 0.528606
12656 13478 0.374204
3308 1188 0.675744
903 1311 0.559314
2064 2287 0.0690547
3672 8984 0.331002
3445 13160 0.34705
7742 12134 0.578621
3215 9887 0.423057
9525 3399 0.0591846
11773 13026 0.48293
15819 4172 0.42977
11246 6472 0.461675
9541 2589 0.591138
13277 3619 0.235909
11493 10714 0.670424
5823 14527 0.0526495
9133 14993 0.627857
7032 2686 0.00224117
5565 14769 0.660301
3007 9598 0.267977
2544 9478 0.338495
11877 188 0.14893
7032 13733 0.668409
935 12922 0.997424
15592 6461 0.707558
456 6579 0.00385012
9601 627 0.575259
5781 12700 0.906288
12102 12966 0.618009
4805 120 0.350981
10487 9481 0.181881
12221 7911 0.899699
11107 5847 0.520893
13669 15200 0.820977
8405 10093 0.470456
8199 2403 0.901394
9121 694 0.144044
13848 11072 0.120269
10994 11931 0.363787
8345 9801 0.955087
4030 11370 0.238361
13609 14870 0.148061
672 9530 0.648773
6384 7806 0.990465
9958 9781 0.965358
15826 12479 0.351156
9509 5338 0.599736
177 9401 0.174292
421 4397 0.886481
4241 9116 0.542022
4124 4663 0.251765
13938 12867 0.252102
7914 10296 0.536824
11264 13302 0.261113
5057 13509 0.707374
5435 1665 0.709861
5432 12779 0.192698
13792 9284 0.581206
12154 14005 0.912019
14370 7857 0.547833
7112 10146 0.242259
15837 11259 0.655479
6932 5702 0.283517
11767 13142 4.17158e-05
14761 3825 0.202931
5578 14561 0.0918482
12059 515 0.68059
1945 10548 0.856008
12366 1044 0.343842
6617 8352 0.0785332
15343 13483 0.275603
3572 2496 0.875066
9134 5025 0.0263813
14749 13682 0.0809963
38 2538 0.507756
14394 7725 0.511723
11623 14972 0.495593
9820 11886 0.0274515
13361 2423 0.304994
3792 11389 0.732515
14861 2032 0.871712
13548 12641 0.397615
10603 5530 0.0976752
578 9134 0.140061
12574 554 0.685102
7297 1648 0.0768651
10861 9704 0.575171
707 13256 0.759291
9232 9810 0.408896
6628 2875 0.751525
3403 13345 0.35932
5506 8554 0.672231
11388 8341 0.72428
2400 8188 0.63955
5601 15834 0.96162
10499 4984 0.95904
4113 11596 0.0310854
4422 12904 0.250599
9350 12750 0.999525
795 10877 0.600465
15075 4968 0.895724
7510 4248 0.194563
6208 14465 0.5573
3566 7188 0.477047
10403 2498 0.781235
4730 3316 0.732532
4306 5741 0.449131
430 8396 0.918894
493 590 0.052239
12111 2236 0.727473
8060 9636 0.294843
11274 6654 0.709926
14117 4834 0.0560019
12863 15523 0.0098834
10248 2307 0.798354
12012 1825 0.909926
8040 3700 0.745531
3519 9865 0.0614312
14668 11316 0.14658
14560 9002 0.650208
3500 8430 0.0466413
10499 11104 0.158777
4018 15234 0.921331
9726 4550 0.886303
13879 11557 0.802095
3701 10933 0.802568
2595 4592 0.473997
15525 15374 0.0148915
10 11930 0.442373
2078 620 0.489622
5871 1615 0.230432
12721 10566 0.578792
12180 12240 0.748601
9319 1286 0.26374
7350 15850 0.953085
14042 5540 0.670997
15851 14153 0.365379
15077 13225 0.183073
15096 2249 0.357283
13809 7781 0.200928
7498 15792 0.391716
279 9498 0.101485
12776 10224 0.255347
6540 684 0.234965
1964 1826 0.771473
6436 14179 0.461603
11287 14854 0.576052
2147 14128 0.177029
2020 12635 0.572927
9415 10196 0.70028
7463 6202 0.802987
12552 12839 0.21824
506 15649 0.144338
10362 137 0.338595
1740 1842 0.995212
13272 5560 0.439544
6101 151 0.140138
6147 10316 0.153489
12581 1502 0.884914
6845 1788 0.345439
13713 12332 0.711862
12973 1271 0.948319
9238 8839 0.103212
10072 5049 0.147803
3528 14653 0.648755
9838 1191 0.962169
1220 15069 0.607894
7436 10129 0.633239
13770 2102 0.904837
12791 345 0.35702
7492 14491 0.59154
12057 9127 0.74924
4648 8913 0.907437
2860 15879 0.328864
7813 3677 0.223804
10609 2002 0.441389
13316 14270 0.586362
3561 7972 0.830819
10528 5689 0.182041
8942 5316 0.129805
12385 3420 0.76936
14124 10882 0.338687
15410 11872 0.933743
15263 6613 0.144252
15882 15141 0.123989
2165 11749 0.331485
2428 8668 0.536092
10479 7980 0.0938694
2644 1379 0.583038
9063 7078 0.0980103
646 4556 0.0684
6014 1425 0.387524
8402 6088 0.475568
10153 11055 0.442633
11574 2648 0.924424
9922 7084 0.205925
9224 13470 0.402298
702 6275 0.0155461
1580 13096 0.0893883
6211 6067 0.780518
12098 1136 0.902688
12035 1143 0.934604
13679 10856 0.337149
951 6487 0.540698
11481 15502 0.737275
7541 4485 0.267381
12859 10817 0.371495
10623 6388 0.667432
2403 680 0.741711
3125 2733 0.505177
12855 1539 0.535402
5144 838 0.355959
15884 17 0.639767
8042 7251 0.859326
15322 14568 0.702613
4506 14561 0.929386
282 2972 0.451039
9172 2836 0.877029
7036 10130 0.468249
4630 1859 0.0619625
2527 13746 0.45551
7192 12501 0.433621
8280 7564 0.449377
4249 12199 0.555536
12595 11571 0.990065
7936 12888 0.6239
12093 379 0.349822
15386 11609 0.0212003
3077 6760 0.38389
4650 4757 0.203321
10512 13370 0.433357
257 13452 0.474826
13104 341 0.698871
1215 696 0.530107
4128 7772 0.854055
10751 2961 0.990068
1052 9695 0.982904
1142 11 0.288189
2199 6533 0.133444
4058 9165 0.941171
7581 7961 0.430175
58 13557 0.850578
9579 2440 0.00386979
15959 7955 0.685618
9131 6041 0.633265
3056 1709 0.468274
9232 3843 0.402987
4422 10840 0.0766251
13287 7428 0.341805
3344 12152 0.408762
15836 679 0.300637
1935 13665 0.858137
15293 1609 0.340332
5353 1485 0.990995
14519 4195 0.411041
375 5762 0.234691
14521 2835 0.891523
5029 872 0.772768
2267 12988 0.168893
11741 13735 0.279952
944 2049 0.069837
4418 6295 0.123053
13976 2331 0.93351
15461 13719 0.91179
15956 784 0.0304261
9378 93 0.609764
10585 3061 0.797387
8042 4819 0.0368564
8114 15635 0.878912
1542 4671 0.311425
8955 4735 0.790623
13797 4120 0.656231
9240 808 0.976516
8240 2475 0.00701534
2446 14824 0.897116
14287 6610 0.52978
11006 3634 0.151312
15689 13552 0.871354
8076 5017 0.606039
585 5396 0.487673
12394 2479 0.194744
7691 12200 0.356306
10191 9711 0.713466
6048 12688 0.924993
4925 14002 0.493082
14368 2581 0.0732053
15912 11646 0.641145
3056 5501 0.463504
5837 9950 0.850544
12911 14092 0.181896
15627 6089 0.66596
4839 11248 0.444961
889 12347 0.010089
13814 11473 0.129344
10746 2897 0.0291644
15620 46 0.105584
6261 12217 0.12694
6342 502 0.00622274
7324 7165 0.967111
14300 9863 0.78238
12403 3738 0.426202
89 12237 0.541464
14364 11063 0.623108
9906 793 0.207464
10662 8309 0.690957
15853 8695 0.703466
13188 4628 0.438222
15551 4162 0.846317
7514 1348 0.753536
74 15903 0.161784
10005 9484 0.791161
13790 8300 0.801199
2058 14921 0.149007
1181 6910 0.633828
8777 7614 0.889432
13731 15215 0.882728
11299 2690 0.536733
14777 7238 0.891354
12466 30 0.930967
9383 10305 0.333804
6620 9013 0.744534
13021 2084 0.416776
728 7435 0.768227
1184 12592 0.703561
11685 10877 0.0460244
5913 15503 0.607459
12180 13330 0.481549
9574 7481 0.250426
4884 3810 0.639219
6702 1350 0.831081
13574 1165 0.0108393
7327 10746 0.465321
15411 522 0.746129
6584 11024 0.808437
6285 281 0.278457
7325 7950 0.221996
9626 805 0.922626
8595 1181 0.281894
4302 9241 0.0616356
1426 361 0.738159
13161 669 0.133772
2944 3487 0.904549
1008 3587 0.53545
14619 4349 0.0302222
11087 11495 0.125485
7626 1977 0.530697
5177 5943 0.149216
7514 7768 0.895014
8366 12690 0.237293
4618 10737 0.632566
348 6948 0.181664
7622 1403 0.851152
10197 821 0.0872899
7271 15030 0.791183
3590 12955 0.101327
1005 15687 0.172778
10218 14100 0.575412
8998 7859 0.0280241
11926 869 0.837145
5031 7444 0.450964
2446 1956 0.0749879
790 4676 0.276456
14876 6517 0.290921
15800 10375 0.0887361
6051 11869 0.857329
3486 7758 0.485916
14816 5326 0.365307
11803 4550 0.325444
15141 994 0.713225
5879 12471 0.592936
9634 13741 0.399046
14582 15846 0.854969
3775 1741 0.605593
13283 1940 0.224836
1323 4721 0.845097
13745 14660 0.0548191
13981 8146 0.100842
6590 12823 0.933702
8366 13285 0.82729
6344 13268 0.0437867
3706 14195 0.499473
13621 5675 0.166941
5818 13587 0.917025
6550 8251 0.380502
304 241 0.48136
645 6627 0.0831626
15839 11138 0.589827
3392 15962 0.404536
98 6657 0.586544
5697 14914 0.704594
10733 2223 0.578868
7211 6234 0.107739
9272 1358 0.152126
14471 8623 0.538232
2554 7951 0.364587
14910 3898 0.271511
6314 15015 0.848388
4319 15367 0.0715848
14241 10121 0.42638
1631 9831 0.535916
15249 12120 0.637105
4269 6847 0.226143
12585 12437 0.904956
5770 1112 0.962056
5658 11737 0.326388
8677 3678 0.123989
12831 5611 0.827722
15377 2365 0.256103
14977 8023 0.922484
12102 7748 0.0841308
10645 9889 0.0449551
14796 11015 0.630472
8674 10739 0.294141
6469 2966 0.145211
7329 7770 0.990068
4426 640 0.182604
2212 527 0.287453
4203 7408 0.0412208
9362 8705 0.145162
13390 14202 0.805536
6453 19 0.0484872
14960 12435 0.0540914
9922 6032 0.0566265
5228 8971 0.553001
14491 690 0.878674
6595 5472 0.172939
1252 3269 0.946987
10719 13621 0.0902204
5149 14279 0.530026
11004 6328 0.96617
10009 2905 0.0483531
8611 3815 0.385754
2902 11030 0.129066
8868 11297 0.323551
5127 11875 0.810519
12841 4601 0.932054
188 1579 0.739608
8782 2666 0.491627
6531 5915 0.920768
986 3993 0.0270876
4671 1800 0.180535
8617 155 0.82133
716 12436 0.570804
7201 9338 0.819486
14443 10760 0.964346
2480 1283 0.750771
11566 374 0.316646
15349 10391 0.62808
7980 960 0.71973
5490 4211 0.993735
15945 1704 0.735181
5890 14751 0.458609
6441 8932 0.933478
1024 15512 0.510881
13051 2092 0.353098
9110 174 0.613592
500 7435 0.893816
11764 10915 0.491318
4142 8182 0.970447
4748 9254 0.116523
2744 3694 0.082423
11883 186 0.643163
10516 8233 0.520735
7872 11785 0.224656
469 10935 0.589705
15774 3771 0.848276
130 10002 0.560828
4803 12948 0.479534
5585 6876 0.0308039
15936 3756 0.223283
3411 14657 0.0251493
3798 12217 0.716153
402 7420 0.333525
3260 11804 0.665094
10191 9120 0.846103
8969 12150 0.989834
14930 5405 0.911353
9152 14554 0.272373
13077 5742 0.535119
12703 11663 0.24704
2292 13367 0.618425
520 5580 0.965481
12720 1249 0.575527
8735 5623 0.820397
14975 2699 0.864141
6535 2530 0.0950803
6487 703 0.755027
12412 12036 0.181211
9139 4779 0.463264
11457 9224 0.861068
11392 9137 0.786486
9083 2125 0.166499
13362 5971 0.0947976
972 6791 0.866452
12295 15907 0.0600429
13526 3473 0.702054
11087 13568 0.973359
1698 7573 0.857033
10895 12161 0.623832
6277 10646 0.918868
11372 3004 0.731053
10033 5411 0.0101476
12340 13327 0.280328
15471 11170 0.128161
3554 3630 0.169478
3865 5119 0.982151
3101 6542 0.998299
15920 3732 0.00386979
9673 6162 0.881676
1949 369 0.170901
2291 4777 0.874687
3014 460 0.866843
7123 7873 0.822137
2096 5897 0.571094
14256 13575 0.792402
7891 5952 0.286024
8869 11343 0.406696
3904 11240 0.586716
3309 14121 0.868233
15648 5411 0.148085
784 11035 0.592194
11691 9470 0.0258389
14153 14894 0.739849
11603 6649 0.816357
4384 149 0.496518
6336 2628 0.921007
3069 9442 0.114657
258 6092 0.616746
13684 1945 0.208719
9889 10589 0.904671
10489 10636 0.898467
14425 6627 0.163678
4895 2450 0.00361305
12736 14143 0.380959
4047 9109 0.119124
2255 15494 0.123028
