%%MatrixMarket matrix coordinate real general
% Random matrix generated for weak scaling
128000 128000 6400
4659 13459 0.978059
31329 18753 0.725321
4422 19289 0.151862
9232 5133 0.0375968
1581 2347 0.828539
15877 27081 0.618319
10519 1489 0.144339
20826 21748 0.266551
28298 11902 0.0950683
16367 32104 0.811449
11377 6285 0.552456
16104 1313 0.992273
15551 2866 0.237394
6183 6925 0.550857
28782 14206 0.421311
4048 3549 0.669855
9325 30675 0.988991
15813 16093 0.633714
14182 5700 0.805265
19974 20725 0.820844
28244 26792 0.441442
30863 2170 0.90881
25034 2679 0.967138
26368 15318 0.979384
23632 31708 0.150523
5172 21903 0.234387
9406 14249 0.0569303
19901 9374 0.08875
29489 31458 0.409111
1775 4409 0.204001
14072 12552 0.731996
32307 22477 0.809812
19701 22156 0.450823
25994 23731 0.766655
24220 18657 0.960568
6723 556 0.803421
5619 2801 0.210538
23589 5655 0.612709
22939 19276 0.217594
27876 32062 0.434944
956 11692 0.199041
26952 23109 0.593374
25546 23875 0.546354
25229 31949 0.729057
25473 16222 0.591267
10476 14252 0.506148
23176 47 0.374888
30760 836 0.88332
24904 10338 0.0507201
7239 2194 0.823552
11164 7524 0.110104
4381 371 0.00186604
5109 19410 0.104586
13032 7328 0.699271
18122 30905 0.790365
18261 9636 0.430846
14785 8844 0.594518
8007 30295 0.796349
22414 4248 0.697365
1665 2934 0.520406
20320 4422 0.158559
3 10738 0.361158
22971 25564 0.262689
30595 16970 0.598433
7929 20770 0.466796
2443 26025 0.862461
17197 19346 0.712226
20339 6704 0.759291
19529 18318 0.638349
5862 20434 0.287353
20007 18989 0.881027
20693 14673 0.445513
30472 14932 0.700432
23954 11948 0.884922
5566 19712 0.505359
9353 5315 0.400518
29620 2809 0.879876
29670 31991 0.972215
22714 1794 0.38043
12045 268 0.211983
20679 7995 0.927707
18947 8849 0.485214
27563 5330 0.271015
17364 7977 0.627237
7215 24496 0.0305953
779 14680 0.484684
17942 14109 0.576268
22620 4339 0.407382
7718 17831 0.78977
26623 5177 0.651328
14424 1717 0.439168
27451 27682 0.517156
15304 12798 0.725516
1510 12713 0.86247
11572 19398 0.756757
18393 29203 0.653588
7147 15959 0.889268
12501 25076 0.301674
20786 2958 0.373213
4560 23520 0.642776
24978 5290 0.940553
3553 14965 0.173496
13359 5284 0.0777997
13571 17066 0.911817
7559 6034 0.395201
1000 2269 0.425198
24419 18824 0.444584
26491 18425 0.159563
2851 10913 0.606708
11152 27415 0.0999028
16104 26342 0.554739
26072 22101 0.658196
19214 27161 0.0990017
29788 22087 0.526569
21799 20384 0.361358
6150 7436 0.0711963
520 25820 0.182388
2657 24749 0.299984
25802 498 0.0168565
17642 23485 0.525867
23265 24805 0.0802326
21309 11654 0.352307
5299 32666 0.556185
17616 18324 0.024741
17612 7335 0.621451
1838 28263 0.160334
7625 23500 0.341822
15347 24406 0.0916098
8960 24092 0.699554
23507 28370 0.0792386
14097 9811 0.281244
7082 16643 0.649906
8767 17863 0.428944
4977 15244 0.170997
20602 29586 0.132361
23320 1297 0.186736
8289 12385 0.444793
9388 10828 0.636063
27195 12136 0.194721
21630 11977 0.370254
1693 5884 0.10789
25663 18135 0.692372
22111 3365 0.43012
1803 17038 0.512384
3004 28103 0.706029
1112 5309 0.138242
29912 31911 0.505996
21739 2257 0.55808
23278 7633 0.0663724
28055 16079 0.351621
4282 10257 0.553023
24715 23625 0.40098
16553 12892 0.50523
18423 13878 0.0138409
11422 21455 0.960914
7549 22337 0.512019
24832 20820 0.230557
19561 29912 0.362354
5679 29621 0.10151
21972 13402 0.489129
26410 1017 0.357677
13852 32702 0.349362
5961 13196 0.0093146
8894 27244 0.128671
17868 20725 0.766015
29272 24839 0.7388
29386 13718 0.272867
968 7610 0.556472
8698 32752 0.248797
32197 11383 0.137095
15308 14759 0.649148
4398 30498 0.952534
25383 8685 0.933413
17182 26180 0.847429
565 29641 0.48032
28778 19482 0.0380515
13971 476 0.0857878
11331 18115 0.476378
6706 10603 0.167576
7620 17658 0.15745
31143 12528 0.83359
18290 7482 0.103664
15202 2585 0.324256
1643 25188 0.97508
31014 17209 0.323265
21855 14852 0.100841
26217 21257 0.405947
25002 29762 0.705651
3231 3662 0.865813
8307 24876 0.26974
29419 7483 0.517675
7591 9117 0.446088
5054 1748 0.416553
24531 10701 0.165552
16665 22533 0.976006
12484 11414 0.355781
13084 1877 0.081789
21110 15170 0.172165
18763 22925 0.955034
9720 12516 0.0915355
12777 5489 0.690761
14447 740 0.374505
13514 16204 0.30257
8182 25103 0.463199
22182 17332 0.624913
28056 11424 0.254258
18550 9163 0.536476
29459 23956 0.971197
8162 16986 0.0510078
2301 8328 0.455907
8298 30130 0.25038
22672 25062 0.438459
20373 6774 0.480254
12830 21320 0.015544
2093 22755 0.80948
1648 1851 0.921658
6693 27151 0.495593
23992 16543 0.528768
5517 25492 0.564115
5764 16807 0.633834
15094 26953 0.111712
18573 12455 0.551327
1695 6127 0.216133
23654 11054 0.626016
16244 16377 0.121038
4534 7999 0.225773
19485 30437 0.472183
16632 22935 0.303505
24461 10686 0.800468
29137 26573 0.978019
10104 19500 0.611395
25880 29606 0.44491
8651 11800 0.458646
6492 18395 0.615488
2690 17501 0.0400082
13608 13768 0.274875
24876 11140 0.120001
19243 29817 0.630569
5770 12192 0.639447
12175 19047 0.106963
15323 1256 0.146259
3195 23408 0.629733
9689 20234 0.268129
7970 418 0.665197
13273 27139 0.0991495
20196 24485 0.865813
22970 22201 0.0426895
2578 8694 0.716175
31548 14977 0.608858
28270 29431 0.419733
18736 32002 0.00322109
32531 11202 0.204539
16027 3618 0.867706
27355 19044 0.193725
21362 26137 0.506691
22452 23539 0.282371
14014 31526 0.549319
2636 3732 0.0340514
11668 26710 0.919819
21901 7425 0.512914
2116 2824 0.253112
6330 30777 0.0925368
32449 16668 0.91118
31635 25115 0.402979
16242 14891 0.384346
25150 26110 0.326997
5084 24305 0.912842
11404 32689 0.647633
15241 12599 0.251408
29288 26933 0.313598
12549 12609 0.250803
903 2830 0.132873
24212 19924 0.410077
31427 3812 0.119307
1024 11468 0.680355
28536 13073 0.848001
9405 22104 0.38396
7778 8239 0.307364
28646 24706 0.75023
1476 30745 0.713117
14341 14890 0.00489067
10154 32543 0.435559
12397 23482 0.0503197
8226 4594 0.687113
15865 2992 0.146259
11703 23598 0.735566
23445 32539 0.468466
16318 14668 0.922357
16919 28165 0.323948
27122 31365 0.305107
13686 22390 0.880222
31490 22211 0.400456
9465 15404 0.441104
25633 18489 0.689379
4432 6185 0.625029
2184 3836 0.0422173
16933 5303 0.77399
3559 15015 0.354369
8325 29230 0.83907
2561 9196 0.712342
19071 17930 0.491448
16754 3592 0.275233
13955 24812 0.280694
9758 2227 0.65739
1460 23772 0.0575127
27514 11922 0.00497729
28477 27545 0.697546
28286 7387 0.171173
29816 26052 0.0777997
6284 7053 0.930246
9250 20615 0.311425
18757 20849 0.372471
27128 12831 0.298634
7356 22203 0.985572
6156 6398 0.255659
20181 23911 0.911817
7665 14776 0.711872
28702 23622 0.918004
30058 26973 0.0731805
18154 11696 0.414407
24135 8008 0.514504
12951 16323 0.0555765
32419 23868 0.681242
7994 1459 0.346018
14589 19760 0.413709
29257 2178 0.355908
32066 5037 0.188154
19817 14525 0.109615
28510 25358 0.345946
12758 16431 0.937908
19367 18996 0.262299
7490 26007 0.312085
6661 18354 0.00527381
31017 20780 0.365712
14418 31844 0.496911
2133 7651 0.215723
1991 2731 0.492923
18026 24024 0.495906
9902 20317 0.807121
22227 6126 0.960513
2134 24198 0.50991
4650 8190 0.110435
18806 30830 0.9513
32335 1073 0.773552
12700 24564 0.306429
10491 1950 0.591872
30313 26083 0.387544
7721 12861 0.16868
9918 30583 0.469292
2947 16196 0.403832
3769 2934 0.456015
28640 24476 0.753895
28153 25316 0.448286
26256 22675 0.797842
8166 19817 0.934208
10963 26547 0.273861
13630 24216 0.756939
11944 8125 0.772793
4260 26138 0.174712
12013 10452 0.0714418
23471 8295 0.965243
17220 7647 0.699204
12769 17348 0.577702
31737 4356 0.988733
14416 3651 0.420703
27951 957 0.541264
24067 29995 0.996199
30436 800 0.926407
11342 6801 0.345585
618 1198 0.958554
19154 1836 0.0524015
18372 3456 0.618378
18752 4809 0.024919
23258 12564 0.621307
9395 22332 0.281682
732 22256 0.86728
5909 32027 0.510251
29533 16650 0.182414
22391 9569 0.720089
26395 3432 0.983451
5247 3508 0.141437
167 25992 0.163678
13573 18007 0.177296
2743 31789 0.609499
27475 4129 0.802476
20201 10059 0.00059616
16459 32737 0.241353
28181 12456 0.302769
16579 8048 0.821778
25819 493 0.54327
23196 7671 0.728576
15294 16898 0.0966497
30151 22953 0.527732
26792 2226 0.95467
15804 25811 0.603665
21041 690 0.900159
26384 12279 0.43809
2750 7420 0.617103
29410 19268 0.717497
20825 9969 0.464269
2291 29477 0.702393
25613 29982 0.526486
3730 11091 0.0918162
28747 19581 0.678221
5258 2296 0.290298
11662 10193 0.877854
29890 27319 0.747505
30613 28665 0.0704999
22659 29113 0.657797
9336 17215 0.469876
19287 9791 0.192347
26230 16215 0.860137
31763 22488 0.206764
4460 12575 0.229659
22203 7384 0.254036
17181 15616 0.738425
19043 8340 0.887145
23048 10280 0.486034
27545 3462 0.180776
28557 9698 0.909846
13113 23675 0.511881
29948 19116 0.894808
26917 4495 0.111305
20254 18735 0.0763715
11552 1245 0.326574
20246 8812 0.17954
23532 26553 0.830137
6436 9848 0.316292
751 11107 0.0504564
28810 21193 0.232107
31275 8709 0.199455
972 17465 0.272705
22678 26454 0.395218
9148 32693 0.302153
11045 8203 0.868285
11560 1761 0.696174
10310 4514 0.190938
12913 11262 0.903894
8183 4205 0.318448
29605 23635 0.91339
15649 15736 0.186662
3016 24239 0.12384
4995 31629 0.382887
16705 29885 0.404406
8422 15898 0.627232
13873 12821 0.110016
28356 29953 0.227656
30549 19665 0.437834
6046 32406 0.657838
11104 15674 0.900416
9943 29196 0.776911
3366 13878 0.777388
12168 1150 0.344638
25396 32034 0.533417
16783 4906 0.0614312
11654 12209 0.60141
29097 1842 0.705872
16746 11547 0.696093
13836 17438 0.321932
27385 27409 0.642446
6985 25603 0.0852799
28204 4646 0.169478
5800 2646 0.664273
1586 17593 0.500625
23067 6573 0.865518
12172 5723 0.0182972
18860 11816 0.118505
9347 1871 0.110629
13697 14082 0.0881294
30286 3527 0.792335
28015 4926 0.728901
15402 27475 0.996468
5220 5841 0.398395
21366 19659 0.302675
12808 10237 0.619396
16643 12991 0.718045
31867 31835 0.301934
14184 9998 0.0680365
5265 17580 0.727166
30850 8676 0.430021
25230 18538 0.113917
3870 27170 0.90736
25330 5677 0.689379
17291 28902 0.808339
31742 20936 0.703737
14585 21915 0.917734
8168 16394 0.791956
26511 15085 0.196056
12275 22796 0.203698
6794 13836 0.703561
19102 21217 0.91491
15421 10197 0.230053
31899 4089 0.492577
16659 22541 0.00275084
12901 4587 0.822963
27816 7721 0.394392
32658 25527 0.751506
6362 28164 0.669554
25927 8329 0.862232
26479 9535 0.789195
10853 25098 0.456409
5080 10428 0.285906
20303 25059 0.497692
25643 24487 0.915385
14092 2627 0.372458
16137 26816 0.577733
29320 19663 0.56577
9960 17723 0.620106
14040 9612 0.615335
4220 18809 0.388042
2160 22131 0.0853457
1750 26302 0.891182
18769 30217 0.358559
25235 13336 0.195556
10932 8983 0.759242
6541 30329 0.188784
1074 28357 0.779644
21554 1557 0.722176
15881 16253 0.0869543
4265 16307 0.0103235
26178 2144 0.820003
22065 13952 0.59198
30849 28615 0.878588
28022 30169 0.72099
2050 7001 0.689679
25482 28194 0.596673
22215 14349 0.751506
27065 23413 0.131689
22279 9479 0.0698919
27807 6191 0.0773221
20194 18177 0.457217
9444 3099 0.952628
18287 17083 0.595835
4966 8811 0.182242
8055 16542 0.431718
13606 25070 0.939002
17044 4983 0.902383
24137 5279 0.117729
13643 18007 0.626684
22259 24737 0.211206
30587 12466 0.51743
28492 19367 0.375416
15458 21784 0.932506
7152 4087 0.413275
1182 13257 0.150333
21420 16424 0.264314
2552 32001 0.576372
26946 23328 0.354554
30028 20573 0.114611
7534 2884 0.431921
3744 15788 0.870299
31721 31997 0.0419591
17021 3682 0.520958
10392 6635 0.217742
2248 141 0.475429
12356 18857 0.917553
1262 12973 0.845967
6018 13210 0.877131
8420 15161 0.556938
4682 10208 0.269223
22422 13346 0.77969
4376 8784 0.60598
6164 19426 0.518525
21192 10335 0.950024
2420 3260 0.969079
9537 23409 0.843013
18703 1285 0.521628
482 3481 0.537205
20994 808 0.32997
6146 5347 0.846055
9515 6492 0.440378
25991 7581 0.611517
18472 20715 0.725783
32301 10822 0.402501
26263 18356 0.788299
21937 25548 0.121314
23056 15876 0.538409
25390 16172 0.93812
18742 26779 0.804245
5214 10354 0.502828
