%%MatrixMarket matrix coordinate real general
% Random matrix generated for weak scaling
32000 32000 1600
20138 23695 0.457296
2416 24001 0.790359
20 9196 0.336253
17158 14218 0.446682
11008 26419 0.647005
9672 20639 0.18724
21040 11351 0.719066
20225 9918 0.973398
30056 26439 0.878413
19991 11697 0.802987
1081 69 0.00209246
10497 23676 0.634687
8619 15037 0.237254
7038 20261 0.637534
28919 22236 0.850155
29052 22691 0.311493
1334 29262 0.027995
9744 19304 0.841127
27012 22136 0.602605
15036 27440 0.513872
693 11453 0.22396
914 12556 0.314185
22920 19541 0.703005
23436 9961 0.769027
20721 24172 0.7548
30720 4615 0.797197
26372 4297 0.0833365
24114 28696 0.560751
6040 25566 0.115994
17384 31425 0.340974
26560 25153 0.0824052
667 20192 0.131453
5312 11460 0.739663
26630 21722 0.789293
5455 13900 0.368883
11565 10145 0.313531
8769 22222 0.120672
21019 26910 0.0285438
8486 10827 0.541446
2765 27678 0.788557
2315 6704 0.281594
11770 25519 0.784441
15369 15504 0.876318
281 27511 0.920447
16373 21210 0.788761
19085 27491 0.0533303
3661 22040 0.502625
12907 31 0.561294
22619 11913 0.604947
3992 16963 0.741178
8196 13680 0.735049
6484 22493 0.0102808
25467 29155 0.411106
20420 4900 0.190426
28536 3109 0.0202127
13544 16860 0.566343
5061 11814 0.356512
9969 2802 0.672021
22506 10518 0.69597
12999 3302 0.911924
5128 24450 0.65642
15359 13267 0.773385
18365 4738 0.0265394
23573 14574 0.0862259
719 24946 0.698417
271 8412 0.765098
11040 25151 0.415052
23433 5365 0.976076
24032 31390 0.280282
31889 31757 0.732345
10904 29618 0.897727
10684 1917 0.426738
12783 11779 0.684433
15404 28679 0.568878
18857 31079 0.0284005
21596 22203 0.0488274
8435 5622 0.513013
22294 24689 0.258911
30683 11181 0.522544
31504 25940 0.870242
27015 14382 0.00204651
24149 13442 0.414711
17222 15949 0.879226
16672 30925 0.345207
16184 4659 0.720738
21589 2343 0.156931
21072 31199 0.421355
4203 28036 0.838362
28303 31777 0.80948
29385 26905 0.660607
28060 8345 0.279377
13453 5093 0.0481343
354 13004 0.40633
25831 26583 0.5504
15147 25563 0.956825
9693 13072 0.156439
28658 29367 0.130536
11406 10053 0.2918
3484 1402 0.605889
29093 4110 0.236355
28693 268 0.697314
16954 25859 0.123989
5457 27379 0.170786
30467 749 0.151616
8320 13510 0.0866201
3906 8779 0.426974
1297 14569 0.265084
19885 10002 0.998654
6997 25126 0.0625478
15135 24108 0.509152
2738 11185 0.118533
28635 11978 0.523522
17727 6067 0.909702
24219 9076 0.272705
11403 28474 0.0531069
12403 16377 0.870776
2017 23818 0.581716
11495 3684 0.0161952
17308 16101 0.299183
6284 256 0.497793
10229 17660 0.526025
25214 19696 0.928861
6186 23479 0.357985
24639 15450 0.585712
18072 1130 0.474001
12817 24409 0.00322109
15086 16158 0.323074
10136 27116 0.082069
27653 6937 0.0496176
29771 25334 0.105419
61 6565 0.574252
10156 3715 0.0625478
5609 1311 0.810995
19540 10207 0.955542
13967 28491 0.965938
11052 16073 0.6086
30075 31011 0.176263
22276 16496 0.94488
981 4722 0.208121
590 19511 0.236359
10002 8712 0.778109
16106 31139 0.497329
6154 7564 0.630947
24261 16655 0.907101
20079 22130 0.449158
13475 19694 0.777474
4381 27664 0.295868
2858 30472 0.397048
4414 23221 0.478197
6958 20797 0.391403
5024 22099 0.801824
20554 8767 0.044403
24368 15608 0.479546
20925 27219 0.549615
363 12861 0.471625
9150 35 0.0148437
1704 27431 0.897588
15635 10052 0.129134
31962 17928 0.155106
12007 12038 0.912766
6964 1309 0.430128
16646 2009 0.543973
7109 11734 0.655356
10602 22378 0.89749
1135 1817 0.486367
24887 29930 0.605889
12503 21681 0.283781
14629 3324 0.594964
2971 24448 0.808339
15454 15191 0.0558309
18273 11463 0.658493
12885 31301 0.508278
9429 31709 0.208028
176 15269 0.58104
25293 27364 0.547666
15226 15382 0.23877
21331 24112 0.324795
9385 11856 0.249825
26696 13357 0.801824
26408 3100 0.578697
1898 18900 0.333717
4990 10994 0.857005
778 445 0.377191
1992 16279 0.333863
26968 3865 0.912279
8103 8059 0.212919
16747 19696 0.848706
5472 21197 0.765285
29567 1579 0.030332
28190 21989 0.270195
15269 15217 0.409876
63 7955 0.812518
755 9560 0.529572
8760 686 0.643526
4090 20234 0.464425
6328 25438 0.398712
8657 2995 0.477365
10083 24627 0.21868
15543 29712 0.851321
17819 13982 0.999854
13074 20776 0.725898
6279 17464 0.0960874
8419 10036 0.636224
20423 1650 0.596253
15685 3918 0.279412
22024 5750 0.630885
14237 6971 0.196895
22236 25998 0.230804
18890 30113 0.711937
14306 12797 0.28125
18737 15108 0.483589
5959 10201 0.606565
30548 13186 0.150577
13384 21067 0.0464897
12383 8033 0.899475
5749 16284 0.586523
9867 23496 0.867372
3083 12750 0.165414
26151 31523 0.311494
6098 21475 0.79399
19630 15335 0.10431
13896 19446 0.43987
305 7837 0.930633
28074 12884 0.244529
2602 26694 0.82914
15248 21503 0.617181
7006 19072 0.368382
13153 15278 0.156136
5365 23325 0.77545
23032 1183 0.464348
27744 3008 0.69514
29172 25074 0.23868
15240 19916 0.986008
7053 10007 0.896713
13190 3176 0.0269248
24146 13950 0.644478
28943 29884 0.673505
31810 24696 0.991535
21952 5898 0.161472
31758 30139 0.8061
12108 15756 0.132579
9079 15259 0.650437
16954 28290 0.256534
13364 15899 0.353946
27864 22884 0.182943
13924 16034 0.537026
3750 11680 0.886761
26137 26585 0.775493
23360 16995 0.407296
861 22610 0.305401
2592 18814 0.807812
2548 29116 0.506778
22019 31705 0.809274
17034 28235 0.0667497
4521 20691 0.17973
22501 28837 0.283496
27463 187 0.246054
24602 12746 0.972265
16798 22666 0.628221
19226 648 0.475473
16669 21734 0.530851
19543 18200 0.700615
29844 779 0.591267
23940 193 0.27769
2358 5591 0.466929
24872 6386 0.140803
6033 19032 0.37406
16821 12995 0.0824052
5306 13261 0.256052
16730 24977 0.180152
23914 30506 0.485317
18965 10210 0.652772
19035 1113 0.733702
1877 17053 0.2408
21845 21365 0.529647
10262 14801 0.255384
21843 6263 0.53115
6769 21333 0.510982
3790 25987 0.740764
27752 6845 0.652058
28504 31698 0.888621
6605 30936 0.903998
18712 10286 0.504199
29566 22557 0.237394
22071 7457 0.123002
30915 18225 0.651311
25159 15094 0.0305016
18855 705 0.415109
20671 8405 0.397371
635 21222 0.0243931
26525 262 0.390218
11705 11167 0.307541
13074 239 0.0869638
17568 27002 0.00531273
17756 13222 0.123362
14484 26332 0.420769
22771 20678 0.880751
20987 18607 0.488079
25823 28535 0.926147
31071 12062 0.931734
19203 9274 0.784299
17118 30142 0.62431
7186 27252 0.152159
28239 26224 0.476745
21373 17168 0.426687
17826 6476 0.239475
19456 5518 0.139986
9550 3510 0.328618
8745 18956 0.702836
20167 1347 0.771313
28943 264 0.987391
15256 1749 0.638076
4641 11962 0.163889
15540 11317 0.865237
24742 5404 0.795457
22861 18683 0.264314
27327 4326 0.898465
24442 22063 0.1237
12796 12645 0.531233
29899 17466 0.822137
17566 18982 0.328088
8058 29839 0.356759
29178 12159 0.476154
18026 15305 0.102743
9190 18032 0.291863
16093 5453 0.524403
29187 10341 0.424779
3253 17391 0.73804
28995 20881 0.0247337
28475 28604 0.025268
162 5275 0.00430779
18776 10575 0.499288
6624 14113 0.302539
24027 23079 0.48032
13238 29668 0.0481343
3604 16788 0.695355
19347 15309 0.140426
30708 19687 0.905313
25602 22446 0.967543
19409 26710 0.0480011
18045 9596 0.205686
896 11932 0.153258
31858 14745 0.167419
19018 13760 0.686024
12628 25866 0.251033
25392 455 0.590141
17748 30671 0.609306
8276 20969 0.584651
9002 7863 0.335741
1441 9101 0.305165
5151 26892 0.843645
30841 13475 0.567595
7079 21573 0.377554
28273 20597 0.358501
18899 10268 0.0999028
17594 5834 0.583865
11966 22121 0.803136
26991 541 0.806298
8232 3505 0.791104
21137 5124 0.896713
10529 10801 0.700298
25991 7954 0.196084
13928 508 0.525757
15961 12305 0.426966
16753 26932 0.217665
23009 14377 0.653711
30900 30999 0.422372
14680 7348 0.869373
24120 12782 0.975119
24710 5037 0.701806
18322 14628 0.0426895
30651 12614 0.970982
26987 24590 0.794275
8975 3917 0.289708
8233 19641 0.497544
87 27632 0.258567
19255 1448 0.811826
23108 9502 0.971156
19433 11317 0.43987
11931 10690 0.749295
6206 5291 0.972509
92 8022 0.16681
22255 21799 0.950977
26800 24149 0.91156
14735 19909 0.384252
16160 18484 0.924952
20427 8755 0.320177
9637 26735 0.632868
13261 14089 0.313158
6098 16587 0.265569
24638 4645 0.131955
15397 3783 0.564291
2789 21721 0.638236
1736 11871 0.0381273
23010 1050 0.0344723
14028 3888 0.423198
11093 23272 0.260935
12292 22980 0.719871
14801 18886 0.792258
26985 19281 0.354855
10890 12286 0.379842
20695 16928 0.509392
8403 30832 0.223912
27120 6214 0.0509096
3676 6636 0.36027
25121 19548 0.655635
9980 21740 0.525867
15823 30403 0.41719
731 424 0.431595
11298 27941 0.705116
30349 620 0.795956
26921 27023 0.532756
8842 5534 0.376717
21607 5854 0.280942
23651 27554 0.769491
26638 249 0.0448227
30798 15875 0.535624
16496 25003 0.592673
5878 27219 0.0887093
25930 26587 0.386608
28894 2685 0.278464
31063 15177 0.742476
15215 25740 0.422293
10890 12144 0.674854
20581 5100 0.464463
23122 8359 0.774143
10004 2617 0.149776
11215 6325 0.14353
395 24671 0.26337
933 15653 0.108687
9679 8409 0.0477487
500 16436 0.321482
2369 1868 0.71398
27156 10296 0.137419
21715 30888 0.738054
28757 17900 0.805785
7009 4527 0.940978
26108 31498 0.340865
21370 24776 0.554082
30145 26970 0.625748
5263 7785 0.9827
308 23470 0.168296
228 25744 0.54252
3893 31960 0.502872
20728 12670 0.174032
11529 6315 0.833484
495 26651 0.253634
20173 26267 0.33173
16295 27869 0.817036
5379 3770 0.714376
25197 26246 0.0777908
19679 24109 0.53723
27172 28416 0.120778
22353 5707 0.630206
166 31442 0.920852
295 15421 0.582085
22009 19792 0.193628
10025 30588 0.793602
31026 21425 0.679733
492 11723 0.931299
20581 31177 0.0065252
28991 16785 0.579793
4042 5985 0.977892
22842 26181 0.0439608
14143 29808 0.835857
29190 29769 0.400199
23666 12148 0.978184
947 22529 0.666279
6365 25217 0.331384
212 764 0.261821
24534 24037 0.0841653
31 4773 0.0941864
4121 21102 0.360851
7371 19571 0.368927
29702 10908 0.914732
28094 18107 0.0397733
13558 27492 0.169624
21634 11137 0.25356
11552 8041 0.16629
12099 26541 0.0694732
31019 4657 0.523598
20148 206 0.715872
30734 22732 0.331208
7895 14805 0.605272
16001 27769 0.934323
6245 8726 0.686841
24484 8716 0.190773
9211 16792 0.111108
21508 20600 0.339604
27186 30631 0.0886898
28893 18362 0.438264
219 13543 0.309072
3350 3647 0.215021
14884 7317 0.355959
23777 15878 0.135244
29545 29807 0.595493
11778 29074 0.189559
12703 13197 0.0717425
23979 513 0.672006
195 29225 0.0984945
26050 5122 0.22711
3544 30151 0.645362
30258 26315 0.714385
7901 19331 0.9171
6397 29934 0.0193387
4391 30982 0.549799
26612 24437 0.791931
21844 516 0.868108
15298 14964 0.438511
6959 3592 0.593374
8549 2365 0.812222
29269 5958 0.163182
27655 9332 0.548228
6102 18824 0.583643
116 14714 0.0431611
752 14671 0.431902
485 1623 0.827655
8978 21786 0.978688
4078 11765 0.856319
18151 21914 0.802572
21006 29805 0.0235745
6089 220 0.252858
27393 2082 0.847299
2881 25294 0.895714
12566 1782 0.220472
7312 11417 0.596618
21975 10442 0.874756
22412 16635 0.163455
11409 28435 0.853471
10426 17180 0.647004
21518 18053 0.552187
9351 1864 0.517745
2791 14985 0.532992
21778 10646 0.077224
17210 1235 0.414406
21671 10990 0.518055
26960 412 0.923872
14511 22812 0.422917
9540 28929 0.0351549
1016 5184 0.0659086
680 23659 0.225502
926 24209 0.827704
358 14328 0.361769
165 22111 0.732222
4526 17255 0.400268
4760 13134 0.093296
22771 8591 0.55808
4358 4371 0.106632
4872 595 0.947034
5990 3548 0.42184
428 11931 0.258845
16761 2735 0.900431
19866 19790 0.0932844
14537 3276 0.154951
11549 19081 0.712194
23619 14241 0.548639
8266 20871 0.637605
220 1604 0.890341
28327 29058 0.077494
30646 21097 0.880478
939 17773 0.595835
21354 23669 0.881824
303 22709 0.0899229
13901 2296 0.519407
24502 9063 0.903811
10323 347 0.483888
1870 30877 0.360387
5518 31653 0.43896
3 21757 0.824821
5050 31363 0.145505
13251 15921 0.586523
24247 8036 0.788697
29970 27009 0.179994
30009 31108 0.682501
20630 16368 0.481592
1726 9155 0.981449
14202 3627 0.702535
14114 5708 0.261257
17803 6811 0.315131
8318 7083 0.879897
22049 2756 0.595791
23112 16274 0.189735
6507 9449 0.101304
19772 5895 0.804974
19917 18979 0.401214
19718 19124 0.331002
2620 19989 0.0079802
11195 24254 0.588317
6374 10795 0.541419
19054 26789 0.774339
5170 27642 0.371084
23932 21506 0.870113
23528 24586 0.540626
15647 21157 0.738158
14040 346 0.237699
17595 26152 0.135144
18940 8596 0.0720362
27494 1103 0.218791
16768 8642 0.557165
12488 3062 0.933687
9853 21797 0.120085
2447 9936 0.22838
14257 18579 0.334379
16862 28070 0.956982
13362 10166 0.307029
11314 5982 0.269363
6485 6865 0.0916262
6872 21047 0.809913
6404 13124 0.0780383
4516 3892 0.973271
2791 17188 0.577419
27437 15920 0.761961
8098 18803 0.747523
31414 17784 0.281595
20591 17279 0.821851
10623 24445 0.900246
3821 17600 0.871856
2444 16403 0.871898
