%%MatrixMarket matrix coordinate real general
% Random matrix generated for weak scaling
64000 64000 3200
6919 13114 0.131955
3096 21922 0.0642224
28766 10252 0.88914
9128 13092 0.852897
24850 11966 0.733192
2691 5025 0.907811
31956 10133 0.245271
27619 23902 0.478592
5414 13898 0.0229219
7883 3501 0.92228
19477 21372 0.0466413
16369 19333 0.97482
29549 21166 0.204327
1468 26632 0.66217
22524 19479 0.671194
30031 3730 0.519973
2417 7998 0.767944
28360 23323 0.238993
13109 16179 0.845483
4452 6780 0.371932
1292 19480 0.807375
12651 21109 0.362713
29632 5547 0.0828744
31629 22966 0.0960005
5607 24068 0.252279
9136 21300 0.820003
30510 20174 0.97189
31745 1310 0.126014
23243 7874 0.176291
8867 19904 0.549789
28737 13187 0.1237
8921 12659 0.278362
23187 21830 0.240491
22104 10446 0.639724
32209 4919 0.923422
27683 31536 0.815433
9872 20542 0.60988
3500 31428 0.683916
27342 29045 0.388105
21282 30728 0.217699
28132 7545 0.93204
3676 14184 0.0836361
1811 26765 0.420768
27413 17564 0.0493008
21978 16316 0.75985
21835 11862 0.987773
9549 23014 0.681562
28489 5243 0.702267
10267 8325 0.123053
28712 25114 0.514177
7363 15882 0.197775
31315 28528 0.415052
7230 5104 0.220249
20197 728 0.421545
17834 12508 0.816866
21901 3530 0.967014
17423 15196 0.639256
4335 11010 0.232747
28707 2920 0.275517
23784 31825 0.913038
8170 19395 0.192347
29835 24808 0.141234
4689 28618 0.32717
10514 30246 0.578762
18366 27342 0.876963
27118 28834 0.33884
1722 6078 0.505591
13728 6422 0.184514
26165 956 0.17817
17882 24579 0.284451
24605 7138 0.348733
4306 25815 0.117285
16086 17533 0.545835
22033 70 0.507535
805 28188 0.334026
393 13296 0.830468
14057 4377 0.840116
27793 1050 0.441166
18695 23324 0.492392
2903 25122 0.283081
4605 3329 0.0162946
17124 28758 0.280735
32119 6391 0.538579
30134 6379 0.583772
23198 20489 0.809975
3205 29338 0.67591
24019 8963 0.626446
4154 17391 0.501963
24868 26201 0.606821
29902 26750 0.631076
5957 14772 0.727945
15859 11562 0.269063
9342 13695 0.16681
1124 24138 0.921007
22239 17578 0.524142
24638 1544 0.429467
25670 19014 0.186178
20614 29776 0.628795
5883 14802 0.0618419
6265 9850 0.886095
6125 14026 0.787755
1191 27731 0.630268
9653 6217 0.728996
25797 12021 0.79557
23899 30898 0.663964
300 23496 0.375054
16028 722 0.205343
15988 8018 0.446646
22215 1907 0.880222
8853 17115 0.419408
8807 2843 0.451312
1431 26850 0.564138
16205 16043 0.30063
21705 16099 0.318501
2385 7785 0.576956
29020 18929 0.820962
27556 22690 0.95285
30727 11625 0.776511
21922 26870 0.926147
31407 31433 0.205868
9496 24996 0.80972
23909 2564 0.527237
1802 5624 0.689535
19917 12319 0.260093
14217 24832 0.645432
15642 3673 0.430176
24661 30948 0.610932
13073 10567 0.54415
22029 29002 0.816719
12949 27609 0.228525
28117 6691 0.189544
28649 10802 0.945219
17954 31385 0.0231918
15358 15805 0.742659
11890 15916 0.501153
6940 15139 0.0227885
31843 20102 0.360888
19082 11286 0.991884
24909 4953 0.112353
8369 16335 0.51691
12249 17059 0.806054
28312 10183 0.642355
25489 20470 0.180302
6460 15183 0.8988
17426 31762 0.558046
26002 20336 0.389611
15881 14976 0.853452
15289 27851 0.0493008
3185 15823 0.990002
29934 9330 0.25772
7594 493 0.0964465
29119 7565 0.518272
30385 16355 0.446433
23339 25619 0.538539
11800 4175 0.59889
16780 14903 0.589256
200 15125 0.895787
25585 27925 0.794773
27323 5968 0.237454
25025 12626 0.310069
111 3032 0.53999
10682 19730 0.514177
25762 9053 0.0644107
6041 9356 0.846196
29439 16709 0.542753
2675 25167 0.32287
4122 1212 0.937887
17253 2428 0.592025
15776 25313 0.876076
3665 30967 0.079422
9318 12691 0.268646
6511 9182 0.827698
11963 40 0.1361
14495 14399 0.454329
12175 18992 0.197562
6127 19110 0.815877
15982 5551 0.4995
7191 16479 0.246353
9415 31589 0.420211
14617 12296 0.243228
30861 2939 0.0823406
8782 6005 0.326586
6329 31726 0.0872377
10082 744 0.293276
16110 4545 0.345461
30004 11359 0.115761
31094 13631 0.131984
6534 11075 0.461401
7937 4630 0.728344
29358 2577 0.0891006
26627 9534 0.604256
7301 23085 0.658589
16715 3166 0.961946
23850 24316 0.163339
3950 3710 0.742772
26747 23402 0.0918356
7264 28271 0.700799
11889 23173 0.458891
24687 4384 0.8562
21863 21563 0.203679
1809 22129 0.84352
1645 16376 0.265123
17988 12988 0.145211
15369 29646 0.727346
28589 10536 0.0103474
29837 12518 0.63281
14270 31402 0.40098
17495 12680 0.356532
14795 11371 0.0249716
5741 22870 0.354218
9185 27079 0.82592
26747 25522 0.781143
12501 30826 0.984567
3478 931 0.793974
14780 31377 0.295509
15863 1404 0.564557
9568 10485 0.848392
869 14036 0.21984
9419 8414 0.291148
14455 31274 0.89391
16317 8254 0.681537
11850 29609 0.633596
20052 27862 0.263308
19384 31336 0.661168
16969 14314 0.811825
26720 30560 0.0210089
20334 20580 0.658437
12552 31223 0.976416
22142 21546 0.765647
31524 25761 0.68254
6020 28886 0.299698
269 26845 0.229475
2297 3546 0.0166282
16793 7516 0.393832
1189 23518 0.649078
17876 29566 0.148951
14360 10853 0.856565
26695 3581 0.40869
23494 5745 0.490559
25348 736 0.93744
21203 1369 0.339111
12439 29178 0.325193
16459 25596 0.990563
6236 18020 0.0126973
12878 11203 0.639433
28489 1891 0.38648
23588 7395 0.218127
30902 29502 0.611443
25273 15414 0.143437
5152 14047 0.160901
32126 20745 0.546662
9376 26616 0.374295
19106 15656 0.0542039
29417 5630 0.360731
29272 2325 0.15774
9952 17755 0.574432
22820 13024 0.999773
4245 1031 0.988765
23247 10973 0.538153
7468 13025 0.0426895
15678 8164 0.917575
3470 28674 0.209314
1864 1177 0.698036
26920 12974 0.424975
16327 11591 0.244661
11354 21516 0.265808
30100 22602 0.508769
30307 14672 0.125339
17313 28088 0.105927
11637 21312 0.597195
9326 4877 0.90203
9340 18906 0.204001
5487 6199 0.906576
8630 5374 0.169858
12071 1837 0.492729
2972 16455 0.437412
30891 7437 0.382878
12155 12921 0.485631
12561 26033 0.439586
12171 24759 0.429896
28133 14784 0.691734
961 29632 0.760348
12207 7786 0.0209882
13027 15217 0.897325
32279 32689 0.213698
7954 15570 0.192181
28093 11834 0.308526
24130 7261 0.464254
5266 25812 0.43424
5667 14418 0.195455
32130 28222 0.985514
16024 29960 0.659013
21351 29772 0.324696
7699 29989 0.000591817
23423 26069 0.938783
5743 24045 0.0999567
3138 23737 0.028609
29921 23571 0.406668
30919 18939 0.858137
30298 32227 0.170095
21758 24855 0.913072
11712 9575 0.948095
3875 9442 0.253705
829 2498 0.759176
6180 20272 0.369999
13511 23856 0.0940447
32345 27670 0.334315
7023 5523 0.320113
26124 31305 0.886095
22601 31692 0.0509096
9836 28203 0.665206
9803 5277 0.299154
27320 15793 0.406981
4990 15177 0.733842
4653 13164 0.00701534
23827 28342 0.368423
19969 10536 0.244468
5672 6938 0.653112
15821 24673 0.150004
26516 974 0.953625
23078 29509 0.54206
6915 25402 0.847739
262 6777 0.140276
1366 19793 0.518726
29899 10579 0.648812
27056 9410 0.893838
9153 12482 0.409153
9947 29288 0.472399
9188 19776 0.242083
7646 27361 0.579118
17223 30478 0.992241
12699 16268 0.735607
30841 15457 0.409117
4413 7966 0.926238
22512 14814 0.623271
11476 501 0.96309
27527 26823 0.958118
15596 17355 0.616774
14145 6868 0.992472
17308 13725 0.596562
24813 26617 0.247647
27394 16909 0.960532
18040 27092 0.253148
28341 12908 0.911813
22663 3007 0.966455
6476 26295 0.0635114
4905 17360 0.547566
27770 20852 0.25909
34 8137 0.00415228
22421 1282 0.238993
10909 2703 0.782146
12079 5126 0.562669
12081 7949 0.305165
30141 20905 0.424117
15330 316 0.207913
6088 25146 0.456014
22069 5374 0.0209431
15866 26716 0.714795
1621 17174 0.24449
29420 26965 0.74908
20685 19403 0.169397
31790 8170 0.0920495
6625 3863 0.627029
4773 3880 0.073355
8570 15308 0.84431
12564 5595 0.475966
31103 23904 0.429001
25477 7659 0.152681
3180 30647 0.97042
4172 29722 0.875816
26764 7282 0.773105
31168 13386 0.323464
30187 31817 0.86585
9334 11013 0.741886
16414 25587 0.501379
23015 25682 0.480185
19276 30393 0.223186
29174 17688 0.53855
17996 13113 0.703957
18700 15580 0.418898
3504 12611 0.851439
1674 15295 0.289042
1551 13554 0.220592
23777 12444 0.944082
15700 19621 0.915201
18858 19700 0.471004
10001 14034 0.587945
1781 18268 0.828488
17478 13617 0.507095
9514 22917 0.187301
5015 504 0.523199
23204 14473 0.98038
5070 8879 0.537638
3631 11758 0.721315
18370 31433 0.378616
11044 23754 0.554556
18460 16071 0.809512
27461 26519 0.302887
18649 111 0.698036
21855 18485 0.716881
9696 10135 0.0159392
15055 20372 0.595518
3060 19426 0.752154
23919 11512 0.964006
22677 9906 0.507302
26326 18491 0.012058
30714 14560 0.7028
370 16380 0.829475
18638 17602 0.152194
10976 28578 0.114233
29764 2929 0.630159
4523 3581 0.904671
18763 18554 0.769491
12012 27684 0.168893
5147 22371 0.847253
16401 6362 0.00528697
27597 18565 0.784229
11272 11688 0.286838
24389 18205 0.713017
19961 4867 0.700552
11665 6866 0.456112
22647 26042 0.448085
32440 29079 0.221309
23466 24125 0.634849
29282 27886 0.00968841
23521 10330 0.509152
7436 29940 0.00870738
9799 4666 0.242906
5259 14601 0.45683
2134 9071 0.0448222
25562 4483 0.955269
15461 8640 0.6138
11012 8100 0.367749
19295 16025 0.671566
8644 11140 0.162175
23220 26147 0.536767
3389 3877 0.0940664
17232 6565 0.431838
1164 28585 0.529572
20518 30533 0.267906
21165 23809 0.441068
27978 5146 0.962945
15994 13723 0.937668
26247 4283 0.395269
23295 8747 0.603519
14784 24135 0.491014
26626 21831 0.569302
7172 16700 0.0213844
25012 31191 0.475054
10184 13290 0.119042
24397 9097 0.835908
31321 21655 0.0659183
26535 1770 0.446222
21105 4331 0.284989
14269 20782 0.510323
5226 16507 0.7084
12242 28096 0.825911
13711 14393 0.179242
14935 4074 0.395675
12431 26455 0.149475
25929 5665 0.660493
12168 712 0.916966
32013 21237 0.501963
22253 21316 0.479081
5059 31894 0.575805
23205 4543 0.793013
3962 31042 0.529
24237 13513 0.485758
24641 15418 0.571889
31311 25790 0.786948
23086 28982 0.65163
30921 19570 0.0963012
11595 31976 0.596562
19267 3322 0.999008
27859 218 0.721382
919 13687 0.679224
31147 10446 0.623832
26921 29412 0.689292
26457 4708 0.238303
29578 31818 0.182921
25052 5098 0.733702
26067 32400 0.0491741
15519 18787 0.436364
29680 28415 0.0607123
9429 30563 0.573222
263 29825 0.636617
19850 11978 0.462171
