%%MatrixMarket matrix coordinate real general
% Random matrix generated for weak scaling
8000 8000 400
2841 7402 0.168463
5468 4795 0.492158
1844 4789 0.100914
4871 3848 0.00900308
7904 1690 0.0985632
2036 6086 0.249794
6590 782 0.0429446
4468 9 0.332833
7885 5786 0.683999
5419 5010 0.767108
7364 7775 0.780624
7292 3231 0.889992
106 519 0.398885
7592 364 0.204488
4441 4782 0.295812
7186 4944 0.265938
241 7855 0.813893
1452 4511 0.217016
6021 6595 0.87963
4714 7584 0.251989
1365 7553 0.420211
3589 3524 0.435745
7269 6999 0.698774
1305 7295 0.391014
7324 5715 0.654951
6575 7541 0.959242
5465 1572 0.596894
1214 5633 0.681873
7892 6799 0.236359
5060 379 0.53574
6920 858 0.0740873
527 4587 0.712285
916 3583 0.785161
512 2283 0.681149
6925 7152 0.789174
6779 1829 0.577466
560 3412 0.478322
7422 137 0.556579
2344 4353 0.236271
1381 4705 0.482212
164 1812 0.682474
7961 580 0.00797413
5909 7569 0.91419
1034 2725 0.0390257
3081 7461 0.295042
2113 3990 0.998155
126 5537 0.98155
1865 6878 0.489489
621 4157 0.0731259
4862 5450 0.486403
3291 6661 0.475324
1195 6122 0.564138
1928 3930 0.102181
2461 7503 0.831842
786 3882 0.469645
7814 5629 0.106672
4368 757 0.316857
7097 2170 0.43395
2120 1737 0.42664
339 5339 0.834594
6157 6733 0.362837
2667 357 0.727562
5193 4293 0.95601
6696 578 0.722404
3321 7904 0.190858
7525 1504 0.698417
2520 2293 0.637941
2413 10 0.519906
6664 6489 0.916585
5730 7462 0.883235
235 359 0.957847
3644 7946 0.948258
4466 7705 0.280509
2601 1571 0.585025
921 1562 0.917587
6461 4904 0.803031
7645 4887 0.865884
7154 7641 0.474857
2400 5290 0.255588
1560 2116 0.714807
4495 2235 0.409247
7940 7461 0.383667
2802 4633 0.388084
5214 3006 0.0237583
3553 3140 0.0987632
7183 7300 0.681517
7912 6578 0.797688
7091 1671 0.68931
6676 2312 0.674417
6316 1988 0.519715
2297 5503 0.443415
1184 2616 0.514338
6271 7756 0.841724
1809 1013 0.266684
3321 7574 0.10044
4513 1628 0.914757
3245 4023 0.116256
1087 1991 0.0477454
1574 2767 0.226697
1038 7432 0.623887
5426 2764 0.554597
1621 631 0.66769
2312 577 0.687992
4434 171 0.146582
4148 5055 0.968243
23 2715 0.555406
2436 3166 0.754016
4482 2551 0.244996
107 621 0.301767
5754 5766 0.802009
6951 6459 0.923096
4470 430 0.065671
5218 1115 0.536732
1638 1441 0.340136
7466 1006 0.949306
7787 3642 0.0780326
5932 4147 0.235003
3526 775 0.879474
6532 1221 0.160386
3217 1403 0.273852
531 5063 0.0968735
1541 1478 0.326309
506 5686 0.618645
1537 1174 0.95887
6289 2133 0.335777
2749 7556 0.171383
838 4492 0.676476
3400 581 0.146601
166 5182 0.918868
4487 3014 0.304751
1442 7002 0.457296
6496 5501 0.309314
3088 865 0.679429
842 4717 0.992799
226 7242 0.33068
1269 3838 0.67415
7486 7030 0.996083
9 2862 0.908856
6156 795 0.539205
3410 4228 0.592795
2466 5268 0.742934
1623 3561 0.733587
5756 3789 0.878377
491 6024 0.483321
6366 4170 0.359453
7453 3182 0.575583
1233 4296 0.945139
6013 2090 0.189133
2815 310 0.51659
1685 1743 0.748601
5741 3114 0.565018
714 4022 0.229437
338 1433 0.947193
506 6732 0.07915
2870 6650 0.209523
1705 7692 0.958766
2092 2597 0.404194
3744 4788 0.517806
1363 2029 0.230053
687 218 0.438984
5604 1184 0.283225
2204 3784 0.672173
5173 3102 0.924424
6897 2643 0.679304
7351 266 0.863911
4795 3044 0.751303
3127 6608 0.918106
3162 3086 0.576219
3836 12 0.205327
2838 2473 0.498912
1434 7671 0.932783
6672 807 0.907395
6605 1894 0.851895
1013 3729 0.515933
6258 5729 0.497349
319 7744 0.938887
3453 7545 0.438141
3397 1401 0.0398851
2565 2266 0.620858
4639 3075 0.229221
1007 661 0.455151
6672 717 0.079617
3445 7971 0.955163
2423 1206 0.785172
1627 77 0.228897
2237 6220 0.0916817
2863 5901 0.823533
5015 5585 0.398643
1916 7113 0.303125
1721 944 0.170694
6778 6044 0.27253
1411 578 0.972106
7650 5014 0.569187
2341 4930 0.378883
4430 5040 0.136744
464 2554 0.0835241
6171 5710 0.103229
4596 3406 0.0646112
4242 316 0.491318
1592 7281 0.583393
605 4467 0.601886
5418 5189 0.777879
5292 1044 0.545179
6962 1064 0.859202
5251 380 0.50504
6078 7590 0.0101476
7183 4627 0.408867
1547 7508 0.703182
347 6641 0.969402
5884 143 0.0155461
68 282 0.304716
1716 6475 0.279094
7863 4022 0.132584
7340 4463 0.396641
4652 505 0.938094
6481 5618 0.556167
6431 3053 0.741112
1685 7795 0.689531
6535 4473 0.255384
5403 5307 0.128944
5883 1721 0.288685
7299 3682 0.0792259
2755 3917 0.121314
355 554 0.106913
6875 589 0.345309
1272 131 0.867831
6785 5228 0.106714
7543 5371 0.903229
231 4229 0.0871353
3308 5433 0.58586
5417 7273 0.0101896
6103 5806 0.301741
2563 2228 0.9789
658 7460 0.714481
453 56 0.0865085
5902 3940 0.658546
5256 7048 0.206164
2597 6330 0.349319
7554 641 0.694499
5151 3510 0.995839
3281 4110 0.0297099
3904 2261 0.791605
7621 6797 0.534811
7709 7363 0.317467
5715 4959 0.44055
5304 3951 0.33176
354 4464 0.144543
6295 5714 0.862443
1266 728 0.840551
4485 651 0.0522393
7290 311 0.051202
4132 949 0.21981
1295 5835 0.455257
2966 2495 0.980966
5866 7162 0.00265541
2441 975 0.0992357
1327 7250 0.834086
4062 944 0.108343
3188 5698 0.354315
3273 4530 0.0356994
7012 1689 0.365717
1269 2910 0.411712
6400 1351 0.391951
6860 1239 0.0542376
6670 6903 0.00661999
1229 6885 0.238615
1577 4634 0.842708
3846 2762 0.305756
3686 3413 0.0596142
6910 7124 0.240849
7046 1676 0.416132
1210 1596 0.338837
1538 453 0.431655
5230 5449 0.530204
3671 2384 0.399851
5966 335 0.306617
6242 3728 0.257068
616 4331 0.984129
485 1420 0.118973
3466 7665 0.638162
7422 351 0.806654
3899 1163 0.0346826
2459 7838 0.306813
1649 2584 0.287524
6916 1724 0.21441
3336 4137 0.231336
57 7507 0.156496
7823 7762 0.955657
3127 3322 0.723908
3648 3691 0.133703
48 2168 0.523468
4307 6557 0.514253
5019 4537 0.68868
4204 2847 0.310133
7629 6806 0.167744
7420 2706 0.352959
3508 6677 0.650912
4436 7579 0.508623
6553 1191 0.796241
4532 2478 0.0583124
2002 5335 0.613235
7476 5237 0.764911
4387 905 0.500176
7015 4926 0.448002
1515 2330 0.51182
2632 2601 0.508362
1827 5465 0.507377
5405 3967 0.133595
4587 7133 0.577272
4807 5244 0.0410396
3094 2477 0.108736
1176 6184 0.00247017
6519 6109 0.0220099
7610 4759 0.693256
7132 1428 0.862234
5690 5854 0.843572
5250 6369 0.0261436
7843 7766 0.642013
1042 4311 0.54277
2414 7776 0.250957
4786 5945 0.064544
7764 3829 0.956786
231 7962 0.850453
835 6872 0.524685
2810 2936 0.44476
1275 935 0.515296
2192 5157 0.0588548
5534 7487 0.565569
5272 7338 0.709275
4124 4036 0.865643
319 754 0.610706
1864 1362 0.749155
250 1365 0.0129113
7675 4785 0.47224
1642 2403 0.632678
2372 4941 0.330512
696 4750 0.0391479
5705 6648 0.685629
7425 1486 0.0347827
7180 1524 0.902098
4537 5468 0.528865
7384 6592 0.901073
135 3793 0.0420397
5590 3860 0.774128
1707 6329 0.21162
1013 7871 0.374505
1097 7330 0.0684054
4151 147 0.575829
57 3110 0.308874
4147 1256 0.932965
7797 4934 0.23941
7966 3725 0.437718
6400 681 0.499378
5416 5983 0.0560495
6622 5664 0.0648018
7257 856 0.456224
1528 5016 0.0942229
7680 7644 0.564446
1343 3562 0.477608
261 4079 0.124454
6576 7565 0.24373
2466 5556 0.857457
3973 4420 0.361473
6357 4970 0.587042
1416 4743 0.188116
709 1801 0.751876
1418 1733 0.630733
7130 5303 0.0603599
6904 3083 0.437196
5700 5225 0.978688
1524 5430 0.0790595
4192 7966 0.114892
1513 253 0.043965
3322 4686 0.62052
3468 1619 0.561991
6663 415 0.848964
7014 4455 0.43366
6735 7565 0.569523
5726 4962 0.936811
1744 950 0.56627
6739 3668 0.296744
2873 6077 0.681094
7391 7240 0.360424
834 4914 0.0798323
6438 3313 0.858015
1839 1351 0.0484125
1426 1407 0.865406
4188 3248 0.539579
3056 2615 0.225883
4921 7780 0.689379
5691 6175 0.368684
3908 912 0.760762
2887 6796 0.254759
938 1342 0.69546
5371 4330 0.436648
7227 2046 0.205876
365 2366 0.380748
4711 5133 0.700848
2860 4213 0.34796
3750 3587 0.603213
